 # Version information for this restart file 
 # current date 2022-11-29 20:44:36.307
 # current working dir /home/kc5054/CHEM2671/comp-lab-class/Week12/Runs/Proton
 # Program compiled at                              Sat Dec 12 18:27:15 EST 2020
 # Program compiled on                                         cs001.nyu.cluster
 # Program compiled for                                                nyu-intel
 # Source code revision number                                       git:8c64c6e
 &GLOBAL
   PRINT_LEVEL  LOW
   PROJECT_NAME proton_aimd_1ns_every0.5fs
   RUN_TYPE  MD
   WALLTIME 21600
 &END GLOBAL
 &MOTION
   &GEO_OPT
     OPTIMIZER  BFGS
     MAX_ITER  100
     MAX_DR     3.0000000000000001E-03
     &BFGS
     &END BFGS
   &END GEO_OPT
   &MD
     ENSEMBLE  NVT
     STEPS  2000
     TIMESTEP     4.9999999999999994E-01
     STEP_START_VAL  1998
     TIME_START_VAL     9.9899999999998238E+02
     ECONS_START_VAL    -1.1027364005818235E+03
     TEMPERATURE     3.0000000000000000E+02
     &THERMOSTAT
       TYPE  GLE
       REGION  MASSIVE
       &GLE
         NDIM  5
         A_SCALE     1.0000000000000000E+00
         A_LIST     1.8595758612559999E+02    2.7263853498399998E-01    1.1526100454610001E+01   -3.6414578262600003E+01 \
             2.3173375816020001E+02
         A_LIST    -2.7809524712060002E-01    8.5951591808710006E-05    7.2189048017650004E-01   -1.9844539343859999E-01 \
             4.2409257583420001E-01
         A_LIST    -1.4825808131210000E+01   -7.2189048017650004E-01    1.3590902121280000E+00    5.1498896280349999E+00 \
            -9.9949268450990001E+00
         A_LIST    -1.0372189126880000E+01    1.9844539343859999E-01   -5.1498896280349999E+00    2.6661910891169999E+01 \
             1.1507715495310000E+01
         A_LIST     2.1801346360420001E+02   -4.2409257583420001E-01    9.9949268450990001E+00   -1.1507715495310000E+01 \
             3.0958394565589998E+02
         &THERMOSTAT_ENERGY
               4.6823681390660858E-04
              -1.7078862733934542E-03
              -2.6452779626961035E-03
              -2.5333907663392355E-03
              -1.8655281789404104E-02
              -5.1684173526781330E-04
              -7.3519115822626374E-03
              -6.7066117665719595E-04
               8.7366201268088747E-03
               3.7094851930946295E-03
               7.0085044909363823E-03
               7.4470480549897861E-04
              -7.4145999802063692E-03
               7.3615803868987682E-04
               2.6273117640420100E-03
              -9.5613394007758243E-03
               2.6862457572005257E-03
               1.7318615594146144E-04
               4.8424479590657007E-03
               1.3087586895398167E-03
               3.6059489994995809E-04
               9.0393357252397336E-03
              -1.0423277947191669E-02
              -9.5544536244113552E-03
               3.4173609505233700E-03
              -4.8045775088586757E-03
              -1.5410540908679157E-03
              -1.8505714077247859E-03
              -6.8480256351340942E-04
               4.2046687911187399E-03
               1.8096318850119222E-03
              -4.4681796111451901E-03
               1.0389754637679218E-02
              -1.1381230090427919E-03
               1.5443065623926581E-03
               8.6737235800994662E-03
               2.7874730395641718E-03
              -2.6589010748240766E-03
               2.7121839389222051E-03
              -3.3955701185787838E-04
               6.7932886590804809E-03
              -6.3222863932404600E-03
               1.6105817193629210E-03
               4.5801083233140364E-03
               4.9725932000103581E-03
               2.6065919147261812E-03
              -7.2631555339279751E-03
               1.2036411525126911E-04
               5.1526627910356108E-03
              -3.9178716470142610E-04
              -1.9083141928602841E-03
               5.1577038853691578E-03
              -5.6810680727538204E-03
              -6.6904295711667245E-03
              -6.1882526642561162E-03
               1.2190683154579076E-03
              -2.8075393808566782E-03
              -9.1142812959265351E-03
              -2.1381427507458440E-03
               1.7696551207295692E-02
              -1.2328434452988201E-03
              -9.1183309793901237E-03
               1.7786434973885931E-02
              -1.1992039304744580E-02
              -1.3903932316748453E-03
               4.5798497179296979E-03
              -9.9041836499101643E-03
               1.4776162678750928E-02
               9.9501785165923423E-03
              -3.2452594832256083E-03
              -4.8616716523599097E-03
               8.5861662247483945E-03
              -1.4993096542123452E-03
               3.0716731452806812E-03
              -4.3855534557246398E-03
              -2.1794007299204516E-02
               1.5992382975968705E-02
               9.9584401597049670E-04
               6.2064001050646331E-03
              -4.8595908327735684E-03
               1.0035593196690213E-02
              -7.9541751992131832E-03
               2.1592235201833231E-03
              -1.2101835085774801E-03
               3.7514804528065108E-03
               8.6322233252936666E-03
              -3.2354783967311700E-03
              -5.4670807989477856E-03
               1.1519880576837754E-02
              -1.4745041937447351E-02
               1.6759004137143420E-03
              -9.1735418765819879E-03
               2.1568684345760346E-03
              -5.6731274503829835E-03
              -4.0827927162973036E-03
               8.7297702263358246E-03
               1.3258190444273951E-02
               8.0124146758988202E-06
               6.9211996373868068E-03
               2.9922540415262362E-03
              -3.5447042154933355E-03
              -3.5272545342809117E-03
               1.1675153812214692E-03
              -4.3833073314925065E-03
              -1.9004377245285388E-03
               1.4699650055131916E-02
               1.1342980943931920E-02
              -9.8776530735395396E-04
               6.4499581746987984E-03
              -4.2488940081205889E-03
               3.3813726511265126E-03
              -2.2176153243150714E-03
               6.5367052159290154E-03
              -2.9827912697562974E-03
               3.9149668777140618E-03
              -2.4309450836430720E-03
              -5.2872525605488149E-03
               4.2530116116815293E-04
              -4.3580810936043558E-03
               2.6436265401522615E-03
              -2.7382640005805094E-03
               6.7999413559130303E-03
               5.5899698801056700E-03
               3.9488185175246566E-03
              -2.5263227053975881E-03
              -1.2406062669348596E-02
               5.4160206287892721E-03
               8.1438531943200899E-04
              -7.2896493557357285E-04
               5.3743965938480142E-03
              -8.0013345216422768E-04
               4.2132938700289359E-03
              -5.8216937111629230E-03
               2.3637140071312377E-03
              -3.7132598307703180E-03
               6.3933633267995336E-03
              -1.4119953789473714E-03
              -2.6026550588019717E-03
               5.1301369197731114E-03
               1.8905545809185897E-03
              -1.4571579487042593E-02
               9.1904883432596517E-03
               1.6918044579953728E-02
              -1.9742805242842144E-02
              -1.3191076057111758E-03
              -2.8146126172941995E-03
               8.5302060586788294E-03
               8.8703792081219399E-04
              -5.2687766307146235E-04
              -6.9874141198323515E-03
              -1.5351398351036953E-02
               6.4436821876486684E-03
               7.4308247530109860E-03
               5.6274073090726356E-03
               4.8290605290455992E-04
              -2.3721906741086211E-03
               4.6532807073686377E-03
              -2.7808788378893977E-03
              -9.4958322428767266E-03
               1.3519015902746603E-03
              -4.9562285637756477E-03
               3.2258491531273149E-03
              -3.7993632617240383E-03
               1.5059508513158293E-03
              -2.8224626971923674E-04
               2.5236185940159458E-02
              -2.9877445768171032E-06
              -2.6443969134077379E-02
              -1.9562943954973609E-03
              -1.6160951875655385E-03
               6.0181685055398469E-03
               2.6215666403070388E-03
               8.5715966960948787E-03
               1.7073247140813542E-03
               6.6345052345460898E-03
               3.9445621005677035E-02
               1.4307694050792309E-02
               1.1350834683466270E-02
              -1.2030677149485195E-02
               1.5641270122246855E-03
              -1.7341977159045501E-03
              -8.9644987009339129E-03
               1.9342432023884231E-02
              -2.6979324678471956E-03
              -2.3365938655492886E-03
              -1.3639340126539857E-03
               1.5417278438109246E-02
               1.6756913978387264E-04
              -7.7041558110061709E-03
               1.4827806196228437E-03
              -5.9825262772656941E-03
               3.7648973266069113E-03
               5.2953028977261079E-03
              -1.9614027984417750E-03
               2.6066323141265132E-03
               9.1804389615361970E-03
              -9.2862837746473820E-03
               5.4777772914200457E-03
              -7.3813539460705607E-03
              -3.7612583399891071E-03
               1.0401419549157643E-02
               2.7013482883085959E-03
              -7.5344994757162674E-04
               9.3073314444741106E-03
              -9.5613596343696924E-03
              -9.1197391593865907E-03
               4.0766796511756895E-03
               8.9749520924727391E-03
              -1.2462493777063174E-02
               2.0055356686944113E-02
              -7.3906925673511165E-03
              -1.4562294550036360E-03
               6.2687348820757525E-03
               3.4021722500595002E-03
              -5.7086974878023710E-03
               3.4928440327531068E-03
              -1.6187562209762977E-02
               1.5841244263837262E-02
              -3.7524029067722738E-03
               3.9654580857162759E-03
              -2.2068725052540393E-04
              -3.7232639800484192E-03
              -1.5837969293392817E-02
               5.4584069682804747E-03
               1.3256886161838254E-02
              -5.4439796765029750E-03
              -3.7604966441745933E-03
               4.5393720326437738E-03
              -3.5414749157270018E-03
               1.8766318365652751E-03
              -7.0089165260323301E-03
              -2.5978983148749191E-03
               1.1287692494771065E-02
              -5.0752512785454508E-03
               2.4636949059758991E-03
              -1.0505933211180134E-02
               6.1493631787065239E-04
               2.9296612586073769E-03
              -8.8384476834093878E-04
              -6.3401712304627874E-04
               8.1521138140345931E-04
               1.0305118762506789E-02
               5.8906968944829868E-03
              -3.7465671958488087E-03
               1.1059721262662936E-03
               1.0604640056550384E-03
               6.0669787553851930E-04
               1.5847043439370736E-03
              -5.0018990912147916E-03
              -9.0903583997180102E-03
               1.0286280470365811E-02
              -1.5738388456837617E-03
              -9.5936165031976356E-03
              -7.5917389606060441E-03
               7.2476585323809446E-03
              -6.3780583794910686E-03
              -3.5095652407907676E-03
               6.5803712898268663E-03
              -4.6395874391529273E-03
              -1.7744402662856601E-05
               6.4876140432030957E-03
               8.3637593708926015E-03
              -8.8499640611677745E-04
              -1.9419275628609098E-04
              -5.5214926515786533E-04
              -3.5084716702261862E-03
               7.7281980641226986E-04
               2.9116881504623552E-03
               8.3962457689320256E-04
               1.4444301203966341E-03
               4.4455318365119196E-03
              -1.4673863616359617E-02
               1.0854235381273150E-02
               6.7285669080114066E-03
               2.1518245938122513E-04
              -2.5864676243445763E-03
              -1.0820932706478131E-02
               1.2691737895916568E-02
               4.6258149860975385E-04
               1.3784421904425520E-02
              -1.2122179478067371E-02
              -7.6697986200397524E-03
               2.0569328134463541E-03
               3.3019378216875106E-03
              -9.1677081919742823E-04
              -1.5665760129229519E-03
              -2.3359077952298810E-03
              -4.4163240414465688E-04
              -8.3692374301363691E-03
               2.0871582647594171E-03
               2.2498757462812463E-02
               5.3199759774034830E-03
              -4.7404287637815099E-03
              -1.6484487485005431E-03
               9.7391990183168296E-04
              -5.1753358797190889E-03
              -5.1208382967377723E-03
               1.7562139523942887E-02
              -5.1487485586352976E-03
              -3.2812573543526346E-03
               2.7862374486148423E-03
              -1.3377970627288685E-04
               4.6938385402508862E-03
               2.2100426920074075E-02
               3.1938806436170933E-03
              -1.6404158373878368E-02
              -7.6806214815791050E-03
              -1.1308962153732687E-02
               1.2669570809324807E-02
               1.1563362341500858E-02
               2.4495866099094282E-03
              -6.1251636443873858E-03
               2.3931405472879140E-03
               1.0158702965756333E-03
              -8.3586028437817954E-04
              -1.6376193318707211E-03
              -1.1332148031958303E-02
               1.9030754680559388E-03
              -1.3767744409593866E-02
              -5.7048040169581102E-03
               5.4118408305246822E-03
               6.1789443926776356E-03
               4.3575284638914542E-03
               8.8472477247570364E-03
              -8.5841877634077243E-03
               1.3430079226879091E-02
               7.3378284641942362E-03
               2.8979922703997693E-03
               1.0443513902076121E-04
               7.2697165483055944E-03
              -1.0931903487650690E-02
               3.8340523178604516E-03
               3.7081485418747097E-03
              -5.3313069804008881E-03
               1.2267260493642823E-02
              -8.1430691555895093E-03
               1.8739616695357870E-03
               5.9785675468534286E-03
              -7.0506856899737221E-05
              -2.6101196370188293E-03
              -4.1765523386194442E-03
               3.3972437250613359E-04
               5.0512972185257641E-03
              -7.1257962578701397E-05
               5.7703255788317523E-03
               4.2911771071737202E-04
               6.3875543280973932E-03
              -1.1967531730607906E-02
               1.2323677510920112E-02
              -1.8753312577509253E-03
              -3.9113494291934878E-03
               3.5017430684460911E-03
              -6.5901873023720709E-03
               8.7010157082166861E-03
              -5.3532085790978959E-04
              -1.4033220497237419E-03
               1.2182582539260239E-03
              -7.1849198830245186E-03
              -1.6140078032274928E-02
               7.4698970115219497E-03
               1.5790096279604804E-03
              -7.3440264305718829E-03
               2.0583625775234048E-02
               6.3368991814773535E-04
              -2.2045387892867469E-03
               2.1360085861569325E-03
               1.5995547725581562E-02
               1.6956350635230365E-03
              -1.0096044859756705E-02
              -2.5277775858375626E-03
               1.4780580985909232E-03
               6.6489096397277904E-03
               1.0965589528794484E-03
              -4.1419429389843946E-03
              -8.2622670706296850E-04
               5.8520786187535008E-03
              -1.0448279392018202E-02
              -1.5587806046886530E-02
               1.7654048363831849E-03
               8.1119797444535839E-03
               9.2520470299859072E-03
               6.4044107053282742E-03
               5.1435103940634230E-03
               1.4229656122114645E-02
              -1.1410668255250469E-02
               3.5195905294335317E-03
               3.4237334069221791E-03
               7.2509787090568645E-05
               5.5058529186122508E-03
               6.6155699231619926E-04
              -7.3640060746641535E-03
               5.7900358938751551E-03
               2.6197219061980443E-03
              -7.7451603192234767E-03
               1.5952144838944381E-02
              -3.8099934780970453E-03
               1.5297758408775212E-03
              -7.3442543489174936E-03
               7.1912877539187245E-03
               4.1398252434914214E-04
               4.8905335324613726E-03
               2.8625969269328476E-03
               3.1689525188832962E-03
              -7.9790774380867156E-03
              -1.2025135924936487E-03
              -5.5150687708525039E-03
              -1.9275599743837936E-03
               4.4264506857499900E-03
               1.6217417636472752E-04
               5.4808311543733277E-03
              -7.6326811181490163E-04
              -8.9270985992516167E-03
              -8.9027138382399926E-03
              -7.1661788063311581E-04
               4.6274463625397451E-03
               6.4717838018579672E-03
               2.4088095567853488E-03
               2.1088116758377546E-03
              -2.5704624484253614E-03
               2.2078114285992672E-03
              -6.2660583687554564E-03
               7.0087961112523731E-03
               1.8289874730687580E-03
              -4.1340316299379063E-03
               1.2735088253125132E-02
              -7.9662458153183791E-03
              -2.8990541560271737E-03
              -2.5796273002113819E-03
              -1.3119641796636597E-03
               7.7041869259781648E-04
              -2.6954399708393056E-03
              -8.5394179361707977E-03
              -8.3093444349129474E-03
               5.6767280680864512E-03
               1.0211281710971435E-02
               2.6349311313992362E-03
              -6.0180814853170329E-03
               1.5594467887894837E-03
              -1.0624766675500335E-02
              -6.4919759739104441E-03
               9.4481418688595400E-03
              -2.0279239896549691E-03
              -4.9303255980135000E-03
               1.0866557124349483E-02
               4.7380400658898385E-03
               9.1440976897041015E-03
               2.7048978338122453E-03
               1.4018198386836694E-02
               5.2236446485949099E-03
              -7.8900416777674346E-03
              -5.7403973654811128E-03
              -1.1434117555745759E-02
               3.1280392547506004E-03
               9.4562879906047719E-04
               5.3431142010143670E-03
               5.7792657278841835E-04
              -1.4701998723302766E-02
              -3.5464556177598472E-03
              -4.6220760569907786E-03
               9.2172506252362276E-04
               1.2207532596946983E-02
               2.1426222071260293E-03
               8.8577910121148727E-04
               1.1574278606200880E-02
               9.5761859894537889E-04
               4.9474316645914942E-03
              -1.0673751233892172E-02
               3.1357027572067454E-03
               6.8138126885780937E-03
              -9.7701482539240114E-03
               3.5672990304180157E-03
              -2.8712925628644180E-03
               3.4747345453267878E-03
               2.5358624190825992E-03
               1.4112170052110176E-03
               1.3656628747863183E-02
               7.0231774831654950E-04
              -2.5540912357332334E-03
               3.0645321504467120E-03
              -5.8698886295208081E-03
              -1.6570124424893987E-03
              -2.9129509386723834E-03
               1.6335671491497219E-03
               7.4152877930874408E-03
              -4.7796699978879080E-03
              -4.0470536478542799E-03
              -5.8966209590760035E-03
               2.3474494970841435E-03
               2.2661984587870466E-03
              -5.8063052080295594E-04
               2.7445905607544358E-03
               7.5432991790748884E-03
               1.7161974299960228E-03
              -7.0412033865231817E-03
               8.9003581861293965E-04
               4.5426775376025096E-03
               3.5917577235148762E-03
              -1.5802994330251772E-03
              -8.2675419238495006E-04
               9.1213861164552174E-03
              -1.4399183093028018E-03
               6.9845068417137956E-03
              -6.5171414628707727E-03
               1.0262408849341639E-02
               1.2862377731727684E-03
              -6.9783355624701403E-03
              -2.9391464532398165E-03
              -1.1827927735962285E-03
               6.0352146349727234E-03
              -5.0183588688618381E-04
              -1.2173281107458665E-02
               8.8427115848543590E-03
               6.6846457457141557E-03
              -5.9769201348149406E-03
               8.1267624588045300E-03
              -2.0089938121795142E-02
              -1.1970387144867329E-02
               6.8632688735566581E-03
               4.9947792288393585E-03
               6.9253872913865432E-03
              -1.5856234961032965E-02
              -2.0670297993071263E-03
               1.0271673202509926E-02
              -2.5045740092683827E-04
               3.7173657654724552E-03
               1.7680780924638243E-03
              -1.0873701626597757E-03
              -4.0029359706827503E-03
              -3.2390738843584546E-04
              -6.6125898496321197E-04
               1.3275694478929867E-02
               1.8978000093922049E-03
              -1.4356968739214727E-02
              -4.4489688714674652E-03
               1.4583810415079614E-04
               3.1756527094484255E-03
              -2.4980131972847245E-03
              -3.9847918640678057E-03
              -5.6171781914005634E-03
               1.2732224535392273E-02
               5.0667643704568853E-03
              -9.4507253660627236E-04
              -3.1503867928978318E-03
              -1.5316997028624068E-03
               2.4322180772227498E-03
              -4.4763174362537324E-03
               9.8310093418174128E-03
              -7.5070892255108945E-03
               5.3432636612437533E-03
               6.2111095199280895E-03
              -2.2985997639118653E-03
              -2.4524434393450182E-03
              -2.7403533381415218E-03
              -1.6828656418601646E-03
              -2.7931067101327287E-03
               7.5858813371752322E-03
              -3.9554723869760170E-03
              -1.2537595672525536E-03
               7.7031207925606585E-03
               1.6878302557164857E-03
              -1.2652845719031761E-03
               9.5884527924906433E-03
              -1.9647847508065266E-03
              -2.2526560210172587E-03
              -4.1486465248484597E-04
               1.3654366502425613E-02
              -7.1523116854137732E-03
              -8.3796698532179002E-03
               1.8900419358577729E-03
              -2.5004725404480796E-03
              -4.4698073403384745E-03
              -4.0597253004656204E-03
              -5.4821904921838601E-03
              -8.3758954774889854E-03
               5.4637760661420615E-03
               1.1234692358572149E-02
               1.6920254679062191E-02
               2.9078510422705060E-03
              -5.7247188822542941E-03
         &END THERMOSTAT_ENERGY
         &RNG_INIT
Wiener process for Thermostat # 1        1 F T T  -1.5601997779545997E+00        4027757407.0        1559045809.0        3403552754.0        1703120254.0         453778739.0        2861026355.0             12345.0             12345.0             12345.0             12345.0             12345.0             12345.0             12345.0             12345.0             12345.0             12345.0             12345.0             12345.0
Wiener process for Thermostat # 2        1 F T T  -4.0112764818655514E-02        3838101567.0        1430396723.0        1556923290.0        2889325561.0         607612135.0        3761282217.0        3692455944.0        1366884236.0        2968912127.0         335948734.0        4161675175.0         475798818.0        3692455944.0        1366884236.0        2968912127.0         335948734.0        4161675175.0         475798818.0
Wiener process for Thermostat # 3        1 F T T  -2.7485675335982579E-01         482699311.0        2506409672.0        1202736307.0        1073196783.0        1141297417.0        2856513754.0        1015873554.0        1310354410.0        2249465273.0         994084013.0        2912484720.0        3876682925.0        1015873554.0        1310354410.0        2249465273.0         994084013.0        2912484720.0        3876682925.0
Wiener process for Thermostat # 4        1 F T T  -9.8957058820594379E-01        3129827523.0        3549124345.0        1353678049.0        1344233659.0        2578763699.0        1106953444.0        2338701263.0        1119171942.0        2570676563.0         317077452.0        3194180850.0         618832124.0        2338701263.0        1119171942.0        2570676563.0         317077452.0        3194180850.0         618832124.0
Wiener process for Thermostat # 5        1 F T T   8.1743834600370391E-01         587879607.0         702838090.0         820286405.0        1159088393.0        1840431053.0        2379049004.0        1597262096.0        3906379055.0        3312112953.0        1016013135.0        4099474108.0         275305423.0        1597262096.0        3906379055.0        3312112953.0        1016013135.0        4099474108.0         275305423.0
Wiener process for Thermostat # 6        1 F T T  -4.6635220676026440E-01        1255338812.0        2941627828.0        2767710176.0        1701464963.0        2824905014.0        2257709657.0          97147054.0        3131372450.0         829345164.0        3691032523.0        3006063034.0        4259826321.0          97147054.0        3131372450.0         829345164.0        3691032523.0        3006063034.0        4259826321.0
Wiener process for Thermostat # 7        1 F T T  -2.7221417990508723E-01        2928923925.0        1475590831.0        3028549759.0        1729569924.0         123262326.0        1965188850.0         796079799.0        2105258207.0         955365076.0        2923159030.0        4116632677.0        3067683584.0         796079799.0        2105258207.0         955365076.0        2923159030.0        4116632677.0        3067683584.0
Wiener process for Thermostat # 8        1 F T T  -1.3371509559371584E+00        3293786404.0        2324351260.0        4224364702.0        1341956089.0         912321799.0        2697559406.0        3281794178.0        2616230133.0        1457051261.0        2762791137.0        2480527362.0        2282316169.0        3281794178.0        2616230133.0        1457051261.0        2762791137.0        2480527362.0        2282316169.0
Wiener process for Thermostat # 9        1 F T T  -8.7225140957356684E-01         657961678.0        1513147170.0        2219186603.0        4111646695.0         616753226.0        2747528653.0        3777646647.0        1837464056.0        4204654757.0         664239048.0        4190510072.0        2959195122.0        3777646647.0        1837464056.0        4204654757.0         664239048.0        4190510072.0        2959195122.0
Wiener process for Thermostat # 10       1 F T T  -6.2889449580622436E-01          96284293.0        2446379684.0        3801610533.0        2961863039.0        1877110468.0         129512113.0        4215590817.0        3862461878.0        1087200967.0        1544910132.0         936383720.0        1611370123.0        4215590817.0        3862461878.0        1087200967.0        1544910132.0         936383720.0        1611370123.0
Wiener process for Thermostat # 11       1 F T T   5.7191327297384098E-01         909895394.0        1862319182.0        2400367466.0        1201802882.0        2818881371.0          83822050.0        1683636369.0         362165168.0         814316280.0         869382050.0         980203903.0        2062101717.0        1683636369.0         362165168.0         814316280.0         869382050.0         980203903.0        2062101717.0
Wiener process for Thermostat # 12       1 F T T  -2.0098512161557830E-01        4281566709.0        2729512869.0         275332126.0         437149450.0        1041778670.0        1778805263.0         272317999.0         166758548.0         310112982.0         201045826.0        1680231254.0         118290799.0         272317999.0         166758548.0         310112982.0         201045826.0        1680231254.0         118290799.0
Wiener process for Thermostat # 13       1 F T T   9.4560796151122029E-01        3557498645.0        2583014714.0        2425630516.0         920535172.0        3770643442.0         978988578.0        2245755202.0        1652682525.0        2865544364.0         721509566.0         209733568.0         592362218.0        2245755202.0        1652682525.0        2865544364.0         721509566.0         209733568.0         592362218.0