 # Version information for this restart file 
 # current date 2022-11-29 20:44:44.969
 # current working dir /home/kc5054/CHEM2671/comp-lab-class/Week12/Runs/Proton
 # Program compiled at                              Sat Dec 12 18:27:15 EST 2020
 # Program compiled on                                         cs001.nyu.cluster
 # Program compiled for                                                nyu-intel
 # Source code revision number                                       git:8c64c6e
 &GLOBAL
   PRINT_LEVEL  LOW
   PROJECT_NAME proton_aimd_1ns_every0.5fs
   RUN_TYPE  MD
   WALLTIME 21600
 &END GLOBAL
 &MOTION
   &GEO_OPT
     OPTIMIZER  BFGS
     MAX_ITER  100
     MAX_DR     3.0000000000000001E-03
     &BFGS
     &END BFGS
   &END GEO_OPT
   &MD
     ENSEMBLE  NVT
     STEPS  2000
     TIMESTEP     4.9999999999999994E-01
     STEP_START_VAL  1999
     TIME_START_VAL     9.9949999999998238E+02
     ECONS_START_VAL    -1.1027364005818235E+03
     TEMPERATURE     3.0000000000000000E+02
     &THERMOSTAT
       TYPE  GLE
       REGION  MASSIVE
       &GLE
         NDIM  5
         A_SCALE     1.0000000000000000E+00
         A_LIST     1.8595758612559999E+02    2.7263853498399998E-01    1.1526100454610001E+01   -3.6414578262600003E+01 \
             2.3173375816020001E+02
         A_LIST    -2.7809524712060002E-01    8.5951591808710006E-05    7.2189048017650004E-01   -1.9844539343859999E-01 \
             4.2409257583420001E-01
         A_LIST    -1.4825808131210000E+01   -7.2189048017650004E-01    1.3590902121280000E+00    5.1498896280349999E+00 \
            -9.9949268450990001E+00
         A_LIST    -1.0372189126880000E+01    1.9844539343859999E-01   -5.1498896280349999E+00    2.6661910891169999E+01 \
             1.1507715495310000E+01
         A_LIST     2.1801346360420001E+02   -4.2409257583420001E-01    9.9949268450990001E+00   -1.1507715495310000E+01 \
             3.0958394565589998E+02
         &THERMOSTAT_ENERGY
               4.1235098189809134E-04
              -1.7040582809274285E-03
              -2.7110820316536503E-03
              -2.4619569812911858E-03
              -1.8305269969900749E-02
               4.8069510237460093E-04
              -7.2546763809250552E-03
              -1.1174076763585258E-03
               9.0250798098740290E-03
               3.9138695947304042E-03
               7.0600747564369959E-03
               5.0601141377361845E-04
              -7.6660608594370776E-03
               8.3794615792516026E-04
               2.9460131371919847E-03
              -9.5490115221438018E-03
               2.7057953592523106E-03
               4.0793724983891467E-04
               4.5063317272731719E-03
               1.3911927990473863E-03
               4.3780933742467945E-04
               9.1481730134350230E-03
              -1.0286780084318646E-02
              -9.6555781305873341E-03
               3.0270514255504449E-03
              -5.2911107344925093E-03
              -1.5369891427089309E-03
              -1.7367218245241786E-03
              -6.4726087022195155E-04
               4.1770744815588338E-03
               1.8359645845123413E-03
              -4.2490786975193815E-03
               1.0403567143214673E-02
              -1.0125494133516185E-03
               1.5496718993112631E-03
               7.7562315303675040E-03
               2.7922550981302275E-03
              -2.2884901787288857E-03
               2.5602511964360913E-03
              -2.3463107230205636E-04
               6.5326682160522535E-03
              -5.8103000493054972E-03
               1.1740779625499915E-03
               4.6761747395517288E-03
               4.9063623545982510E-03
               1.2706102009746140E-03
              -7.2459836559105742E-03
              -4.2138931894314423E-04
               5.3911488058553218E-03
              -2.3696457611733707E-04
              -1.0301286287410828E-03
               4.9626656412671546E-03
              -5.5434277630058522E-03
              -6.7102470317072184E-03
              -6.1997298240007532E-03
               1.4856537272134943E-03
              -2.7204852111466634E-03
              -8.9315893238584576E-03
              -1.8206078138553361E-03
               1.7415130354056511E-02
              -1.3868149282104539E-03
              -9.1360569652454739E-03
               1.7723684227319288E-02
              -1.1820723019514799E-02
              -1.7093284284434892E-03
               4.3998347178961341E-03
              -9.8133561431602290E-03
               1.4958741008908793E-02
               1.0187747551552159E-02
              -3.2424668396655574E-03
              -4.9087273193091484E-03
               8.5581206697800446E-03
              -1.7413925279666594E-03
               3.0300274706532232E-03
              -4.4356798017748935E-03
              -2.1662548971201026E-02
               1.5997570268444387E-02
               6.3611784292510933E-04
               5.5777227576611077E-03
              -5.0550613101985964E-03
               9.7094035889708757E-03
              -7.6180562400084417E-03
               2.2125849281261836E-03
              -1.3325067838210827E-03
               3.6559528555702137E-03
               9.8311937909857823E-03
              -3.0644491818176550E-03
              -5.5306423194750633E-03
               1.1524751609899776E-02
              -1.5021386895896846E-02
               1.4705892532391783E-03
              -8.9767458367247636E-03
               2.0379375622321064E-03
              -5.7293478878679147E-03
              -4.0279513782306856E-03
               8.8830167843747011E-03
               1.3532732387458444E-02
               1.7969476450031949E-04
               6.3750424873041424E-03
               3.0359374740592171E-03
              -3.5422338944928206E-03
              -3.7316422189045077E-03
               1.2239033296105094E-03
              -3.8608899282925506E-03
              -1.2429304335589372E-03
               1.4834813164486812E-02
               1.1379013615412119E-02
              -5.4154581035417725E-04
               6.4500602707041662E-03
              -4.2707297194772790E-03
               3.7947773972419126E-03
              -2.2704886675003273E-03
               6.5045225250464841E-03
              -3.4018036300817560E-03
               3.7397190948281903E-03
              -2.3881466452937991E-03
              -5.0189220395160722E-03
               4.6131054544798538E-04
              -4.1721938690469440E-03
               2.7195361827837905E-03
              -2.8875531589313873E-03
               6.8671530946756857E-03
               5.5661213461393640E-03
               4.1128826390547275E-03
              -2.4918363724663762E-03
              -1.2296579340834259E-02
               5.4054808155852112E-03
               2.2223754653715561E-04
              -1.2839846263010865E-03
               5.5223370918634591E-03
              -8.1152426536237508E-04
               4.2151115073668826E-03
              -6.1791138461736918E-03
               2.1295388823569599E-03
              -4.0655721666353634E-03
               6.2821860599798331E-03
              -9.3764909230940039E-04
              -2.3838704386739732E-03
               5.2013332804653149E-03
               1.6924780230048691E-03
              -1.4396913184754891E-02
               8.5364741520581131E-03
               1.7152824311659032E-02
              -2.0070484855928761E-02
              -1.3226568707788522E-03
              -2.9707385049320156E-03
               7.8328098600492571E-03
               9.2537752967751204E-04
              -6.0350957534781530E-05
              -6.8835048872703400E-03
              -1.5423531543261331E-02
               6.4315770899159713E-03
               7.6368834014712934E-03
               5.6242768881587177E-03
               7.7369506462759356E-04
              -1.8483733518671911E-03
               5.7200629665062090E-03
              -2.5571115107797938E-03
              -9.1653714659527194E-03
               1.7752964112832360E-03
              -4.9812076349284116E-03
               3.1240911242370385E-03
              -3.7267242636979734E-03
               1.5040489201985779E-03
               3.7458101890984474E-04
               2.5526918366954782E-02
              -9.7414564623608772E-05
              -2.6856041892267216E-02
              -1.9728462771223480E-03
              -1.3141085800101580E-03
               6.6928143005944418E-03
               2.6568233124432466E-03
               8.0168823521817000E-03
               1.7535731052722746E-03
               6.5534078559003868E-03
               3.9748793432804574E-02
               1.4293382723539343E-02
               1.1261638784430364E-02
              -1.2050826585415243E-02
               1.5491338615509006E-03
              -1.6868427881877607E-03
              -8.9438712170858189E-03
               1.9289208861653556E-02
              -2.9012131247239527E-03
              -2.4109454206578851E-03
              -1.7138322146386916E-03
               1.5007392754673032E-02
               6.8450105361849095E-04
              -8.0049851716276366E-03
               1.8997983448994183E-03
              -5.9875806128714707E-03
               3.5996142049295136E-03
               5.2554627049762378E-03
              -1.8985337562666912E-03
               2.8674854110923836E-03
               9.0386452434488944E-03
              -9.1029308880052340E-03
               6.1918614415305091E-03
              -7.4344347388456029E-03
              -3.7032772677310167E-03
               1.0747938808571120E-02
               3.2134072714702800E-03
              -6.7602753153564617E-04
               9.6230081987048049E-03
              -9.4701575463048190E-03
              -8.9567840285268863E-03
               3.9816011013021737E-03
               8.9194962126743389E-03
              -1.2192030735483340E-02
               1.9921299261663108E-02
              -7.2485896131993539E-03
              -1.3985588860767287E-03
               6.2693579894505056E-03
               3.3473370914005630E-03
              -5.8066766439120081E-03
               3.4302838091743353E-03
              -1.6592655939707327E-02
               1.5926563325816160E-02
              -3.5525774059689502E-03
               3.9717821194234313E-03
              -7.2624082723839742E-05
              -2.0319248663430989E-03
              -1.4824268631156727E-02
               5.5070547379272748E-03
               1.3808975055362785E-02
              -5.4428083962530056E-03
              -3.5963476520026036E-03
               4.0636110762664749E-03
              -3.5232619840059715E-03
               1.8230237227386749E-03
              -6.1590287729982925E-03
              -3.0140950878990215E-03
               1.1329184585219133E-02
              -5.2803335549229053E-03
               2.1616085857751282E-03
              -1.0305904164227327E-02
               9.1790266154305857E-04
               2.7544396869564453E-03
              -9.0850964335892587E-04
              -1.3311752421132006E-04
               8.3828965028750124E-04
               1.0285558501801181E-02
               6.0062590182623724E-03
              -3.9368154299930505E-03
               1.8981023625549529E-03
               1.7640475055415601E-03
               6.5655362733742413E-04
               7.7872232544366521E-04
              -4.8608183326753554E-03
              -9.1817188349378447E-03
               1.0385615633522409E-02
              -1.7497639526968404E-03
              -8.9530898010506815E-03
              -7.6136725898764942E-03
               7.3769162822734892E-03
              -6.3227347499509147E-03
              -3.6895919621424455E-03
               6.5150750653943214E-03
              -4.4750882712031375E-03
              -3.4799068798243383E-04
               6.6648013603458770E-03
               8.5891455951720343E-03
              -6.3213156756012365E-04
              -5.1783283154723837E-04
              -8.7586112742342828E-04
              -3.6383673782051924E-03
               1.0705754247551072E-03
               2.8735752427725813E-03
               8.1754178145312787E-04
               1.4732170924368917E-03
               4.4549653223225089E-03
              -1.4307649647447525E-02
               1.0884164517165902E-02
               6.8859245364264266E-03
               3.5234304387870966E-04
              -2.5762758666604941E-03
              -1.0743733645008321E-02
               1.2780618487254227E-02
               6.2231895655231876E-04
               1.3578738047150917E-02
              -1.2546093233243275E-02
              -7.8500061252055418E-03
               2.1148432830297120E-03
               3.6712344239061903E-03
              -8.7482979192154379E-04
              -1.2823495439080190E-03
              -1.7739833280763016E-03
              -4.7990965785335831E-04
              -8.4772735130358347E-03
               2.1112082534064124E-03
               2.2583426754304109E-02
               5.1507003896840882E-03
              -5.1277102374577251E-03
              -9.4244615945056343E-04
               1.1931601875953045E-03
              -5.2406631946007483E-03
              -4.8148290762716301E-03
               1.7203259131271690E-02
              -5.4792448232136616E-03
              -3.0858828566164231E-03
               3.0607195044671165E-03
               2.0631642515398928E-04
               4.6772733595242619E-03
               2.2156610497384033E-02
               3.1117896431872762E-03
              -1.7099955244615647E-02
              -7.5523923433858577E-03
              -1.1292306237405287E-02
               1.2978745619506930E-02
               1.1537072922334517E-02
               2.2450909148478892E-03
              -6.1076690395651450E-03
               2.8798159224399798E-03
               2.6053797005807285E-04
              -9.3040381288208760E-04
              -1.5174543692869180E-03
              -1.1333538063105076E-02
               1.1591894661873046E-03
              -1.3568210748215586E-02
              -5.8880027149405337E-03
               5.3319150129466095E-03
               5.4142845563924539E-03
               4.3133474352420858E-03
               8.7861382454156971E-03
              -8.5431889142872797E-03
               1.3712191985956494E-02
               7.2315120310983208E-03
               2.7901468519945594E-03
               1.4137253211300298E-04
               7.1420076744475661E-03
              -9.9764546508932048E-03
               3.8069968713471238E-03
               3.3539194997059519E-03
              -5.0544349847901583E-03
               1.2261967289787670E-02
              -7.9707217949837473E-03
               1.8452442391756485E-03
               5.5896604116939018E-03
               1.6259278654653470E-04
              -3.4615355682547384E-03
              -4.0302226329334157E-03
               7.3869724230339758E-04
               4.8606325252028388E-03
               2.8513067295589449E-04
               5.3113893860246590E-03
               3.1168734608885045E-05
               6.2267662383234702E-03
              -1.1953675654267030E-02
               1.2510657607696322E-02
              -1.8335912644132685E-03
              -4.3110116680881647E-03
               3.6701115340030629E-03
              -6.5736487913485350E-03
               8.9470503551235519E-03
              -3.3509407798388961E-04
              -1.4161213767163719E-03
               8.8116143147206651E-04
              -7.1819915996681367E-03
              -1.6095868362999900E-02
               7.4241503334025053E-03
               1.5935174344079330E-03
              -7.3874166414387554E-03
               2.0943512117513937E-02
              -5.7564167989237829E-05
              -1.8740529416598197E-03
               1.9369276451942580E-03
               1.5828717419245169E-02
               1.9603004670129538E-03
              -9.8450055727584591E-03
              -2.5737979083294820E-03
               1.4010669224913898E-03
               6.7043972750661374E-03
               1.1033230358257718E-03
              -3.9312974225310261E-03
              -9.5988196438298416E-04
               6.1164756231210388E-03
              -1.0345478613708747E-02
              -1.5575066590192031E-02
               1.5154348889902278E-03
               8.0302144795529398E-03
               9.2579304605190284E-03
               6.3657194262109647E-03
               5.6459536683628620E-03
               1.4244855307303706E-02
              -1.1505575573765603E-02
               5.2548323677892046E-03
               3.5616510560496973E-03
              -2.2007074157639801E-05
               5.2329147236832010E-03
               8.2290332892192967E-04
              -7.1010206844449126E-03
               5.6717681368052102E-03
               1.6511258769172929E-03
              -7.7702842098525907E-03
               1.6053884799038104E-02
              -3.7692434760802952E-03
               1.3127785092032266E-03
              -7.3678833305087796E-03
               7.7275138178597436E-03
               4.0841517052500565E-04
               5.4839498358664075E-03
               2.8134131436008390E-03
               3.2199434341576958E-03
              -8.0111477016219720E-03
              -1.6890659826435828E-03
              -5.4549213373115768E-03
              -1.8218896820275568E-03
               3.8006337539428711E-03
              -5.4166878330458247E-05
               5.4303324866104338E-03
              -6.8860667689851405E-04
              -8.9417778982894443E-03
              -8.3790875175908854E-03
              -6.0867285224247840E-04
               4.7223640178332936E-03
               6.2129121440892589E-03
               3.0178352551586685E-03
               1.8508996871695314E-03
              -2.4928587589740201E-03
               2.1358922104256252E-03
              -6.2627950265572024E-03
               7.1016383796902007E-03
               1.5994664033305301E-03
              -3.9959847460795967E-03
               1.3532171751094581E-02
              -8.2874268890161355E-03
              -3.1130806520268742E-03
              -2.6506905753136850E-03
              -1.7962276763786396E-03
               1.0915383562941007E-03
              -2.7968098906548900E-03
              -8.3383284472948373E-03
              -7.9444451486572459E-03
               5.8315063042116621E-03
               1.0449228535585407E-02
               2.8144239993324240E-03
              -5.9816729072211319E-03
               1.6250122097913036E-03
              -1.0474918466460578E-02
              -6.6880874686897455E-03
               9.1681623369363717E-03
              -2.1012111080768755E-03
              -4.6105622125252217E-03
               1.0734367384218806E-02
               4.7200070015233084E-03
               9.2313775833996019E-03
               2.7203009026116240E-03
               1.3827792164359249E-02
               5.7541135129592176E-03
              -7.8712035146403445E-03
              -5.8039000010352455E-03
              -1.1314207163637206E-02
               3.1341717072307968E-03
               1.8553853081868465E-04
               5.5331648645980348E-03
               4.2340054574995683E-04
              -1.4679100406283214E-02
              -3.8721529151875050E-03
              -4.4976229270687644E-03
               6.1991918343125155E-04
               1.2256121421406085E-02
               2.1092233080746018E-03
               6.3608789044997680E-04
               1.2508873781791462E-02
               9.0004938092926663E-04
               5.0171632225950429E-03
              -1.0664899453566938E-02
               3.3263351305830471E-03
               6.8249609766222212E-03
              -9.7874571730627441E-03
               3.6848318156399587E-03
              -2.8011998152292503E-03
               3.8228492801866175E-03
               2.7356836747680778E-03
               1.4494723168351077E-03
               1.4133044924707638E-02
               1.0101018308014849E-03
              -2.7129828040031497E-03
               2.9222639304540884E-03
              -5.8197523988255829E-03
              -1.4101166940255353E-03
              -2.8847892430011279E-03
               1.0667440089745400E-03
               7.5103183684960698E-03
              -5.7872707440292711E-03
              -4.1091181507050449E-03
              -5.8442640158834986E-03
               2.4960278012068830E-03
               1.6766524227534332E-03
              -1.0756474006151080E-03
               2.7584239779578613E-03
               7.5279423145837117E-03
               1.8908869252376914E-03
              -7.1112199905250546E-03
               9.5440957511360933E-04
               4.6437625371052397E-03
               3.2050528640269953E-03
              -1.5078438499258207E-03
              -8.0481423712578401E-04
               9.0310856557006269E-03
              -1.2087968151729817E-03
               6.9341708825597414E-03
              -6.1471130791540870E-03
               1.0213101347079357E-02
               1.2407218966262782E-03
              -7.0387207050095543E-03
              -2.6529944144679657E-03
              -1.3858568201963488E-03
               6.0568330167094630E-03
              -9.5774740775722458E-04
              -1.1653060954542429E-02
               9.0119947546733904E-03
               6.8268448076953285E-03
              -5.9851556130946617E-03
               8.1156677684780434E-03
              -2.0161838882163448E-02
              -1.2146155334362037E-02
               6.8472664340670153E-03
               4.9283035590281382E-03
               6.9123437827092729E-03
              -1.5888086028916597E-02
              -1.2217600469138618E-03
               1.0372531349321239E-02
              -2.2533390656886312E-04
               4.4873955123570933E-03
               1.7986412606256722E-03
              -6.0012009736154243E-04
              -4.5317318951011770E-03
              -6.5622448791504448E-04
               1.9971451042464041E-05
               1.3432767576762162E-02
               1.9390574243100622E-03
              -1.3926096586032184E-02
              -4.3950995723640246E-03
               1.0823980395897888E-04
               3.1727513163610100E-03
              -2.6053882096258867E-03
              -4.1671948181006896E-03
              -5.7670514754129968E-03
               1.0813350050709790E-02
               4.9092505714893910E-03
              -8.8680622389510641E-04
              -3.0560453327129269E-03
              -1.5408798976319707E-03
               2.1243561998488354E-03
              -4.2063388179159967E-03
               9.4738485903551519E-03
              -8.0211677428490280E-03
               5.3240974413983309E-03
               6.2877864328246200E-03
              -3.0271663416155557E-03
              -3.3928444978692050E-03
              -2.3537958009219916E-03
              -1.6678828059012282E-03
              -2.7218433014978608E-03
               7.5942197684018969E-03
              -3.9372892603670119E-03
              -5.2587992731894292E-04
               7.5922440582558391E-03
               1.6333942051021623E-03
              -1.3268143719417625E-03
               9.5794091942564084E-03
              -2.0101029704325444E-03
              -2.2609925425408238E-03
              -3.7814796935561174E-04
               1.3874578247602373E-02
              -7.4422052532901028E-03
              -8.3404894244116061E-03
               1.8698797012472936E-03
              -3.5803446835010562E-03
              -4.5016506589003798E-03
              -4.7447341424286691E-03
              -5.4388268648600966E-03
              -8.3763162702686425E-03
               5.5351093955134500E-03
               1.1443159907158234E-02
               1.6782931467047058E-02
               2.8546321449687546E-03
              -5.7328352827694523E-03
         &END THERMOSTAT_ENERGY
         &RNG_INIT
Wiener process for Thermostat # 1        1 F T T  -1.3877964172148927E+00        3819968671.0        1923139303.0        2505174482.0        1129753110.0        1102497896.0        2318485114.0             12345.0             12345.0             12345.0             12345.0             12345.0             12345.0             12345.0             12345.0             12345.0             12345.0             12345.0             12345.0
Wiener process for Thermostat # 2        1 F T T   5.9690975612399577E-01        1863048650.0        1167059563.0        4156553466.0        2659491592.0        2500563110.0        2967422577.0        3692455944.0        1366884236.0        2968912127.0         335948734.0        4161675175.0         475798818.0        3692455944.0        1366884236.0        2968912127.0         335948734.0        4161675175.0         475798818.0
Wiener process for Thermostat # 3        1 F T T  -1.9577134425325560E-01        2029679022.0        1992813296.0        1475024831.0        3744841000.0        4231717232.0        1872789393.0        1015873554.0        1310354410.0        2249465273.0         994084013.0        2912484720.0        3876682925.0        1015873554.0        1310354410.0        2249465273.0         994084013.0        2912484720.0        3876682925.0
Wiener process for Thermostat # 4        1 F T T  -5.5423907268054418E-01         972191078.0        3239779000.0        2283144792.0        4029872124.0        2868550739.0         388907277.0        2338701263.0        1119171942.0        2570676563.0         317077452.0        3194180850.0         618832124.0        2338701263.0        1119171942.0        2570676563.0         317077452.0        3194180850.0         618832124.0
Wiener process for Thermostat # 5        1 F T T  -3.6874052824979625E-01         246061856.0        2033992607.0        4208640487.0        3425480013.0        1713937449.0        3033523858.0        1597262096.0        3906379055.0        3312112953.0        1016013135.0        4099474108.0         275305423.0        1597262096.0        3906379055.0        3312112953.0        1016013135.0        4099474108.0         275305423.0
Wiener process for Thermostat # 6        1 F T T   5.7875332706651861E-01        4268450248.0        1240555256.0        2123119467.0         299173953.0        2368881629.0        2698044585.0          97147054.0        3131372450.0         829345164.0        3691032523.0        3006063034.0        4259826321.0          97147054.0        3131372450.0         829345164.0        3691032523.0        3006063034.0        4259826321.0
Wiener process for Thermostat # 7        1 F T T  -1.8983145396195047E+00        4260312323.0         705196258.0         937296972.0        1373994383.0        3179698350.0        3757299263.0         796079799.0        2105258207.0         955365076.0        2923159030.0        4116632677.0        3067683584.0         796079799.0        2105258207.0         955365076.0        2923159030.0        4116632677.0        3067683584.0
Wiener process for Thermostat # 8        1 F T T  -3.3116685260855833E-01        2351531572.0        3477839446.0        1021048571.0        1975906828.0        1893564842.0         777663015.0        3281794178.0        2616230133.0        1457051261.0        2762791137.0        2480527362.0        2282316169.0        3281794178.0        2616230133.0        1457051261.0        2762791137.0        2480527362.0        2282316169.0
Wiener process for Thermostat # 9        1 F T T   1.4386427466100791E+00        3265425123.0        2999969280.0        3048908474.0        1047403656.0         134736569.0        4209884843.0        3777646647.0        1837464056.0        4204654757.0         664239048.0        4190510072.0        2959195122.0        3777646647.0        1837464056.0        4204654757.0         664239048.0        4190510072.0        2959195122.0
Wiener process for Thermostat # 10       1 F T T  -2.3947144259907721E-01        2825100143.0        2025717467.0        3827127036.0        1422979577.0        1026966836.0        1481957392.0        4215590817.0        3862461878.0        1087200967.0        1544910132.0         936383720.0        1611370123.0        4215590817.0        3862461878.0        1087200967.0        1544910132.0         936383720.0        1611370123.0
Wiener process for Thermostat # 11       1 F T T   2.8146058156813852E-01        3161233422.0        2404453347.0        1673723662.0         906337025.0          73303549.0        1016746719.0        1683636369.0         362165168.0         814316280.0         869382050.0         980203903.0        2062101717.0        1683636369.0         362165168.0         814316280.0         869382050.0         980203903.0        2062101717.0
Wiener process for Thermostat # 12       1 F T T  -6.6211933450441895E-01         208754144.0        1983222026.0        1378772639.0         460703296.0         651350573.0        3898252829.0         272317999.0         166758548.0         310112982.0         201045826.0        1680231254.0         118290799.0         272317999.0         166758548.0         310112982.0         201045826.0        1680231254.0         118290799.0
Wiener process for Thermostat # 13       1 F T T   2.2418582236869027E-02         545702192.0         878923556.0         464381839.0        1267067492.0        3004786620.0        2258194530.0        2245755202.0        1652682525.0        2865544364.0         721509566.0         209733568.0         592362218.0        2245755202.0        1652682525.0        2865544364.0         721509566.0         209733568.0         592362218.0