 # Version information for this restart file 
 # current date 2022-11-29 18:19:41.562
 # current working dir /home/kc5054/CHEM2671/comp-lab-class/Week12/Runs/Proton
 # Program compiled at                              Sat Dec 12 18:27:15 EST 2020
 # Program compiled on                                         cs001.nyu.cluster
 # Program compiled for                                                nyu-intel
 # Source code revision number                                       git:8c64c6e
 &GLOBAL
   PRINT_LEVEL  LOW
   PROJECT_NAME proton_aimd_1ns_every0.5fs
   RUN_TYPE  MD
   WALLTIME 21600
 &END GLOBAL
 &MOTION
   &GEO_OPT
     OPTIMIZER  BFGS
     MAX_ITER  100
     MAX_DR     3.0000000000000001E-03
     &BFGS
     &END BFGS
   &END GEO_OPT
   &MD
     ENSEMBLE  NVT
     STEPS  2000
     TIMESTEP     4.9999999999999994E-01
     STEP_START_VAL  1000
     TIME_START_VAL     4.9999999999999636E+02
     ECONS_START_VAL    -1.1027364005818235E+03
     TEMPERATURE     3.0000000000000000E+02
     &THERMOSTAT
       TYPE  GLE
       REGION  MASSIVE
       &GLE
         NDIM  5
         A_SCALE     1.0000000000000000E+00
         A_LIST     1.8595758612559999E+02    2.7263853498399998E-01    1.1526100454610001E+01   -3.6414578262600003E+01 \
             2.3173375816020001E+02
         A_LIST    -2.7809524712060002E-01    8.5951591808710006E-05    7.2189048017650004E-01   -1.9844539343859999E-01 \
             4.2409257583420001E-01
         A_LIST    -1.4825808131210000E+01   -7.2189048017650004E-01    1.3590902121280000E+00    5.1498896280349999E+00 \
            -9.9949268450990001E+00
         A_LIST    -1.0372189126880000E+01    1.9844539343859999E-01   -5.1498896280349999E+00    2.6661910891169999E+01 \
             1.1507715495310000E+01
         A_LIST     2.1801346360420001E+02   -4.2409257583420001E-01    9.9949268450990001E+00   -1.1507715495310000E+01 \
             3.0958394565589998E+02
         &THERMOSTAT_ENERGY
              -5.2383050795679466E-04
              -1.0785141759172144E-03
              -1.7392851050595768E-03
               9.6305028914375065E-05
              -1.0673998558502566E-02
               1.1460443615683076E-03
              -1.5113088878225688E-03
               5.7502651317504528E-04
               5.5073059710950435E-03
               5.4351000112764945E-03
               8.2189741105730893E-03
              -3.6733619195829939E-03
              -3.5670788398024711E-03
              -4.6776833696141494E-03
               5.5229493319372191E-03
              -9.2887201537007382E-03
               2.2851860866449684E-03
              -2.2065866744305144E-03
               2.7250749436833100E-03
               2.5957187933372812E-04
               3.6943581448100880E-03
               6.6742878439074254E-04
              -3.0864772861252678E-03
              -8.9053832474803821E-04
              -5.0037859263711969E-03
              -6.6489799837390678E-03
               1.3056815993883787E-03
               6.6742569558799099E-03
               1.3860520974929950E-03
               2.6690286219527562E-03
              -8.5710028916020538E-03
               7.6984093065006053E-04
               8.5277578599338277E-03
               2.2756114895966075E-03
              -1.5224022627404068E-02
               1.1667052180016986E-02
              -1.7657011827695223E-03
               1.6587457891347895E-03
               3.2553274021333610E-03
              -6.8810486487504005E-03
               6.2459674006277903E-03
               2.0977352395757615E-03
               3.5722063364712398E-03
               5.7893308548955177E-03
              -2.5238152517397354E-03
               2.0923616738193012E-03
              -5.2874948482329199E-03
               4.3298017055874933E-04
               2.9248804897416856E-04
              -5.3381826959026882E-03
               3.0338438547902642E-03
              -3.2302033410696565E-03
              -5.5283609545064482E-03
               2.6037071740414835E-04
              -4.0820737471562061E-03
               4.8020437339843611E-04
               4.2282880441664352E-04
              -1.9556075014448455E-03
               1.7810271704684242E-03
               5.3519510840088491E-03
              -4.5370415460612374E-03
               9.5972689735679645E-04
               9.6222545013670453E-03
              -4.7835294307867447E-03
              -4.2841681722489275E-03
               3.2052095907336843E-03
              -8.6689880625324999E-04
               8.8277618207715843E-03
               7.6646174926753149E-03
               3.5030467557174462E-03
              -3.9125789356695708E-04
               1.0244442332882945E-03
              -1.4282407575930865E-03
              -1.3477924965646830E-03
              -5.3140939884745190E-03
              -1.0731140932874699E-02
               1.1167989946413543E-02
              -1.4281361003844629E-03
               4.7851783007446533E-03
              -7.1002891666655348E-03
               5.7809234463711825E-03
              -8.1490898403849396E-04
              -3.1671067546226755E-04
              -1.8776579937645561E-03
               8.9594220602003550E-04
               4.3746800341318594E-03
              -7.6294409676072065E-03
               7.1591226743639618E-03
               6.7529185040455190E-03
              -9.8706819640067261E-03
               2.6247289431185787E-03
              -7.9381742066810899E-03
               9.7613927006718509E-04
               2.2454199314239868E-03
              -1.0340484629779890E-02
               9.2172007069968014E-03
               8.2069082604777337E-03
               2.1668634680659070E-03
               6.7780255242195706E-03
               3.2438873383460920E-03
              -1.8954668983594495E-03
              -7.4754935353386568E-03
               2.7430381856410570E-04
              -6.4468419745870448E-03
               2.5453716439052922E-03
               2.2900561028473313E-03
               1.2531814536603075E-02
               5.9029063144115722E-04
               6.5849090893080903E-03
               7.8274061148483551E-04
               1.8444825991702093E-03
              -9.5000895944021869E-03
               4.9957115329415458E-03
               7.1629570060124260E-03
               2.2695429577770823E-03
              -1.7914436502149201E-03
              -7.4643687700822253E-03
               5.2087505934885082E-03
              -1.3844384699483220E-03
              -3.5414216148920536E-04
              -1.2050782526347749E-03
               5.7338019708499804E-03
               4.7534354113238876E-03
               1.9441005315952761E-03
               2.6456210609395311E-03
              -8.0150678639218740E-03
               4.7353623520467771E-03
              -2.2356805040607323E-03
               2.8335009557028429E-03
              -8.6704730253297727E-03
              -4.8226683206732653E-03
               6.4396171557723507E-03
              -4.3663199805968659E-04
               4.2944205574413832E-03
              -2.7346589714429387E-03
               3.9829339108986683E-03
              -3.2522043101021843E-04
              -2.1937809451098769E-03
              -1.1104766610175996E-03
              -7.4122536715949851E-03
              -2.6080880056567805E-04
               3.2675086018869549E-03
               1.2399966301296748E-02
              -1.2821674346367636E-02
              -4.7223110538339103E-03
               1.1520174873801614E-03
               8.4062408599614759E-03
              -2.5648494587318165E-03
               3.2517390698243108E-03
              -2.2586380373622269E-03
              -7.6975686570719681E-03
               3.2468656140684348E-03
               2.9538349583822093E-03
               3.2958834912038674E-03
              -1.6935964441460154E-03
               2.8979106918619905E-03
               1.6116212784174002E-03
              -6.6736388438553900E-03
               3.8121273694730084E-04
               4.5768898635501392E-03
              -1.3338678335998980E-03
              -1.9585601676107094E-03
              -1.6910627777272480E-03
              -1.5752784310368547E-04
               2.0929525680624039E-03
               8.4985357955382410E-03
               5.9520433434563681E-03
              -8.4139440803840584E-03
              -4.3561106865847099E-03
               2.7563152387145877E-03
              -8.7514357275548800E-04
               2.3799218982212630E-04
               7.0873347898766188E-03
               3.7748227572318958E-03
              -4.8565038661831407E-03
               3.9825520660927330E-02
               1.8995972981394584E-02
               1.0608615939882366E-02
              -4.6086619184915918E-03
               3.0792243721357994E-03
              -1.1316843780374603E-03
              -8.3922953100134933E-03
               1.5495133075138995E-02
              -4.4620184471599947E-03
              -5.2663871562153781E-05
              -1.1529731443150764E-03
               5.5032405296491929E-03
              -8.8091721264766418E-04
              -3.4677943925297086E-03
              -3.2910241688317550E-03
              -2.4821426539407420E-04
               5.0178452785520303E-03
               7.9628347394306508E-04
              -1.5531319267300769E-03
               3.0026654457916959E-03
               8.2831258600027432E-03
              -7.4633863470986534E-03
              -7.1840075399970111E-05
               7.0386831022182005E-03
              -6.6323478017642403E-03
               4.2029867346650592E-04
               2.8155584830498589E-03
              -3.1478138879430874E-04
               3.8755472137075543E-03
              -1.1404611663150459E-03
              -8.9490427771403598E-03
               2.0222524012638151E-03
               8.2362067205207692E-03
              -4.1282712803404360E-03
               7.4947876881043722E-03
              -6.2088033959156593E-03
               3.7933903416133121E-03
               7.3752056233376915E-03
               3.6992068148090451E-04
              -9.9260416486418035E-03
               3.0675261127651810E-03
              -9.4975149417100887E-03
               8.3559657495589548E-03
               4.2836571555632816E-03
               5.2996418554159099E-03
               2.7064964823398118E-03
              -2.5898253426134233E-03
              -9.6895629167481831E-03
               3.3677247673852143E-03
               1.6581364951212287E-03
               3.3055519439351741E-04
               4.5095321128188126E-03
               1.3031556104157699E-03
              -3.2560291034349114E-03
              -2.0580483016517104E-03
              -5.9234148343046966E-03
               1.3058793786613983E-03
               7.5156240723786415E-03
              -2.7919938362007575E-03
              -9.8408263151097812E-04
              -2.0280998772962073E-03
              -2.3561868029382035E-03
               4.6378440183675708E-03
              -3.3398382916057698E-03
              -2.8854937155651280E-04
              -8.3478446669550677E-04
               3.3881409793474048E-03
               5.0128153125847345E-03
               1.6474105596784856E-03
              -3.1882584433436849E-03
               3.3171577319760816E-04
              -2.7240547665012284E-03
               1.2372470020944055E-03
              -4.4226908799223884E-03
              -7.2667557434274977E-04
               2.5135123304636476E-03
               9.7558117769293241E-04
              -5.4396619969477120E-03
              -1.4465221215771010E-03
               3.7176411222422687E-03
              -3.1353513393811150E-03
              -3.7196352689350095E-03
              -5.1356922161914119E-04
              -4.0066657102288249E-03
              -3.5575368860550204E-04
               6.7688898932943241E-03
               2.2414362366913543E-03
               6.5915796390886077E-03
               2.9714417429452227E-03
               1.9142433788165074E-03
               1.0633520241132008E-03
              -1.7516853660381958E-04
              -2.7938730161964553E-03
               3.0669624822349354E-04
               2.1707032062388046E-03
              -4.2935529020202978E-03
              -5.5502782524021752E-03
               3.0887452303104855E-03
               3.5151246744228653E-03
              -1.4573910075493537E-03
               1.0081138229204171E-04
              -9.4745022788151230E-03
               8.9944205676813615E-03
               4.5014632608507219E-03
               2.8007073401545863E-03
               2.6590432175042315E-03
              -8.9515934062233890E-03
               3.8503602550970448E-03
              -4.0745732821066975E-05
               3.1345120838043041E-03
               1.8297624931951678E-03
              -7.8198281607347337E-03
              -1.2187483274162143E-03
              -9.1911456581978031E-03
               6.8963155400749189E-03
               1.2373505311906743E-02
               3.5478221236248685E-04
               2.9034915009842903E-03
               1.7143707066654187E-03
               1.1462235308010607E-03
               5.6726906232540907E-04
              -1.6929989011698712E-03
               1.0343720575935345E-02
              -4.9642291944356235E-04
              -9.8441724555216707E-03
              -4.1492336425520400E-04
               2.5353507881762592E-04
               5.0280249876088878E-03
               1.2728775679031492E-02
               3.3018960458169704E-03
              -4.6891367592511784E-03
              -4.4601140518065628E-03
              -1.4033045449281514E-02
               8.0185423358470672E-03
               7.3645896351073794E-03
               4.8983159777468222E-04
              -2.9004655306476531E-03
               7.7404793127098745E-04
               2.1359264643017258E-03
              -2.9372960507615569E-04
              -7.4284171221615427E-04
              -8.8318459701521943E-03
              -2.3881016558262203E-03
              -5.4556111119304293E-03
              -2.0596437037733628E-03
               4.5398753854953757E-03
              -5.1666405299924337E-03
               2.2968625562149693E-03
               6.2409825667771946E-04
              -1.9951971208829401E-03
               3.0138926781443174E-03
               6.1518599923674096E-03
               2.2059058183121309E-03
               3.6241665606466674E-03
               1.7197122223781577E-03
              -5.4553558232324400E-03
               2.6814340398045432E-03
               1.3066680627777621E-03
              -1.9425121521849944E-03
              -2.5314538908392985E-03
               4.3063399479738307E-04
               2.6125437116079659E-03
               1.5103307686739897E-03
              -1.8640805990883304E-04
               4.0559213545871605E-03
              -2.3525796895935754E-03
              -1.6372751493279143E-03
               6.4098868846504224E-03
              -1.5378266941896499E-03
               6.4917435987243022E-03
               3.5060592403227614E-03
               3.2481566170408128E-03
              -6.2483083332857958E-03
               6.2417346216115848E-03
              -3.0645704357248177E-04
              -2.6840475266909137E-03
               3.4752670118892394E-03
              -8.4556827429223980E-03
               1.6775705225378042E-03
              -1.0249632485532902E-03
              -4.4389136780651683E-03
               7.0655066871407534E-05
               4.6954155503474747E-03
              -7.1166120860796100E-03
               1.7695440282160717E-03
              -4.8964389547868285E-04
               2.6773328445345223E-03
               6.6372019228756489E-03
               4.5483078123122380E-03
              -1.5347739078784618E-03
               2.7557322142954298E-03
               1.7877489311369905E-02
               5.2491836854529853E-04
              -1.6333605393125866E-02
              -5.0344603608070198E-03
               3.0166618094618555E-03
               1.9742193482999129E-03
               6.0058474877788131E-04
              -1.0264986951133930E-04
              -2.9748058996621005E-03
              -2.5792148001256079E-03
              -9.3158338665136706E-03
              -3.6958678993474162E-03
              -2.1320172531680941E-03
               9.6592455927416911E-03
               6.2448251065306227E-03
               1.3960939063345666E-03
               7.8268956704284475E-03
               1.5265404990813134E-02
              -4.0052650841356776E-03
               3.4598310992119447E-03
              -1.6764106560174410E-03
               8.4231806779669714E-03
              -2.1988454624665464E-03
               4.2185871143431237E-03
              -4.7033341196077863E-03
               2.9437541265916333E-03
              -3.7708417897799828E-03
              -1.0225703060186383E-02
               1.1948598020375690E-02
              -3.5714464613220572E-03
              -1.8343150862233225E-03
              -1.1272383791074609E-03
               4.3485510922462488E-03
              -1.5849136005248706E-03
              -2.3523082849218227E-03
               7.7568263315282203E-04
               3.2598479960697226E-05
              -1.2596792860304618E-03
               5.8693611427478405E-03
               2.4868711615495705E-03
               1.6438775226879836E-05
              -2.6903111655008673E-03
              -2.3951029439193642E-03
               3.4459301779383271E-03
               8.9536997580722802E-04
              -9.5952453696454023E-04
              -4.8946622044130613E-03
              -3.4275152996531702E-03
               1.2124689122787829E-03
               4.3629830530330059E-03
               6.7259353518656605E-04
               2.6668259340077247E-03
              -2.1186222503895816E-03
               8.4294706536905113E-04
              -2.6612080368395322E-04
               3.8065770050000340E-03
              -5.0967434416164005E-03
              -3.3150766734741108E-03
               8.8564397579192038E-03
              -1.7858196814534663E-03
              -1.1125040986240385E-03
              -4.6270965155497746E-03
               3.0116002919766612E-04
               7.0543460474114719E-03
              -2.3349142903375977E-03
              -4.5500512707880737E-03
              -5.2231647479362674E-03
               5.4752395192497472E-03
               5.1014052514577598E-03
               3.6649296616007949E-03
              -4.6774348504790954E-03
               5.7113482179705526E-04
              -3.9158683979492184E-04
               1.6839386589621854E-03
               5.6679962107596604E-03
              -8.2347842885416723E-04
               1.6289442446619942E-03
               4.1704557371959362E-03
               3.5902807498108553E-04
               6.9007108083405013E-03
               6.0857794662326050E-03
               6.1474501553539004E-03
               2.9150579466234697E-03
              -1.0823626331127344E-02
              -4.7874477320532524E-03
              -5.5797154180995965E-03
               5.8811345227687368E-03
              -1.5216531092756137E-03
               2.0434510000708890E-03
              -4.3479488761726959E-03
              -7.3377794501227316E-03
               2.5272918900429080E-03
              -3.2756800644914551E-03
              -2.5713092534655107E-03
               7.7432335396581840E-03
               6.1398854538190434E-03
              -2.1219680733790635E-04
               5.6784908610834940E-03
               7.2625200221862161E-03
               6.5077655075001769E-03
              -6.1462188701349139E-03
              -3.6743896994896408E-03
               3.9392314277714733E-04
              -2.0649321396741596E-03
               3.6757325056455559E-04
               6.6931082119164214E-04
               5.5440492940553982E-04
              -7.1614350036181581E-04
              -1.2312256464447010E-03
               4.8330757558294225E-03
              -2.4046515876722878E-03
              -2.3560151259159746E-03
               3.8155021892889779E-03
              -3.1991113402305353E-03
              -1.5258563718178796E-03
              -1.4404170778655760E-03
               3.9039092473606646E-03
               3.5070293252415928E-03
               2.7494991584424192E-03
              -2.2441444854965644E-03
              -4.4959726745030662E-03
              -1.2420956984379320E-03
               5.0967724192883660E-04
               1.8740576358562298E-03
              -9.6613448015616527E-04
               7.9634677326108436E-03
               5.0020602253039309E-03
              -7.3065044406712722E-03
               5.2204694150598269E-03
               3.5940732227930606E-03
               2.4322131718701894E-03
               2.6660366182650816E-03
               5.5522204424424916E-03
               4.1637411981025494E-03
              -2.6926019105448077E-03
               1.3296598105733673E-03
              -1.3538049237964670E-02
               1.7393048090769168E-02
              -6.2255169527544859E-04
              -5.0648385290808029E-03
              -6.2708575149815482E-03
               2.3046239552225022E-03
               3.1666902557044080E-03
               2.3539855862605332E-04
               1.5981854504104277E-03
               8.6863663116390597E-04
              -2.7100846838522246E-03
              -1.2785384066676867E-02
               1.0025114138025417E-02
              -7.8123688864754565E-03
              -8.8288595114735646E-03
               1.9424803666191299E-03
               4.3572463747515973E-03
               2.3194789073354791E-03
              -1.6159674957668294E-02
               4.3186645978114686E-03
               4.0575764163345062E-03
              -2.6989435654818771E-03
               1.7845001503246319E-03
               1.9368743347726444E-03
              -5.7763949388247486E-04
              -3.9539762679071804E-04
               9.2192616651815256E-04
               4.2675827312945490E-03
               6.5276454711660856E-03
               1.7404063057276841E-04
              -5.1130636938660125E-03
              -4.2566059954974936E-03
               1.6887925689323515E-03
               3.3770766597366567E-04
              -5.3928768308792139E-06
              -4.1095400877994900E-03
              -3.9744012377344769E-03
               6.1503076002632816E-03
               2.2145074994805213E-03
              -3.2812256352389743E-03
              -6.1580239292319244E-03
               9.6188125011336496E-04
               3.0140511559806813E-03
              -1.5386379795597625E-03
               3.9098734575019351E-03
               9.6017489642234635E-04
               6.4915662750810871E-03
               6.0437980407034419E-03
              -6.8250457339022515E-03
              -7.7420890638578424E-03
              -4.2010665181629100E-04
              -2.5907202391503713E-03
              -1.6181184130423516E-03
               1.3441537067874203E-03
              -3.0523373465442959E-03
              -6.9759626901640202E-03
               9.5226768177008141E-03
               1.2965327256410028E-03
               6.3995918342784246E-03
               2.9583182178510837E-03
              -9.2038574961489123E-04
               1.0128294271019155E-03
              -2.8056293681681293E-03
               1.1561735547809903E-02
              -1.1494422706148120E-02
              -6.4526454034295588E-03
               3.7770494182546755E-03
              -1.4367526274864067E-03
              -1.8783994454722988E-03
              -4.7498602469790334E-03
              -1.9214125823692214E-03
              -6.3646980880659471E-03
               5.6898925338175581E-03
               1.8466081516274469E-03
               9.9097453143934637E-03
               5.5899517197262778E-03
              -4.6275932821634750E-03
         &END THERMOSTAT_ENERGY
         &RNG_INIT
Wiener process for Thermostat # 1        1 F T T  -9.8236738167888460E-01         226733040.0        4248387519.0        1164353849.0        2758509449.0        3644127687.0        1764793484.0             12345.0             12345.0             12345.0             12345.0             12345.0             12345.0             12345.0             12345.0             12345.0             12345.0             12345.0             12345.0
Wiener process for Thermostat # 2        1 F T T  -1.4171306107827426E+00        1528154308.0        2775625301.0         197130159.0        1452211673.0        1835562137.0        1983376171.0        3692455944.0        1366884236.0        2968912127.0         335948734.0        4161675175.0         475798818.0        3692455944.0        1366884236.0        2968912127.0         335948734.0        4161675175.0         475798818.0
Wiener process for Thermostat # 3        1 F T T   8.6049543281786645E-01        2248570378.0        1724762616.0          52903713.0        3229622658.0        3199004837.0        4241126217.0        1015873554.0        1310354410.0        2249465273.0         994084013.0        2912484720.0        3876682925.0        1015873554.0        1310354410.0        2249465273.0         994084013.0        2912484720.0        3876682925.0
Wiener process for Thermostat # 4        1 F T T  -1.5460863137690717E+00         957380376.0         510326667.0        2247033635.0        2033071685.0        3054261466.0        3462352516.0        2338701263.0        1119171942.0        2570676563.0         317077452.0        3194180850.0         618832124.0        2338701263.0        1119171942.0        2570676563.0         317077452.0        3194180850.0         618832124.0
Wiener process for Thermostat # 5        1 F T T   1.5428690481661575E-01        4203301200.0         738999836.0        1485820986.0          20648636.0        2223680357.0        4294941489.0        1597262096.0        3906379055.0        3312112953.0        1016013135.0        4099474108.0         275305423.0        1597262096.0        3906379055.0        3312112953.0        1016013135.0        4099474108.0         275305423.0
Wiener process for Thermostat # 6        1 F T T   7.0411917217518150E-01        1265311014.0        3687607523.0        1792102642.0         142025920.0         459804801.0        1211121065.0          97147054.0        3131372450.0         829345164.0        3691032523.0        3006063034.0        4259826321.0          97147054.0        3131372450.0         829345164.0        3691032523.0        3006063034.0        4259826321.0
Wiener process for Thermostat # 7        1 F T T  -9.5744195640119531E-02        4040223344.0        4246262317.0         329086624.0          28777921.0        2946509694.0        1489700490.0         796079799.0        2105258207.0         955365076.0        2923159030.0        4116632677.0        3067683584.0         796079799.0        2105258207.0         955365076.0        2923159030.0        4116632677.0        3067683584.0
Wiener process for Thermostat # 8        1 F T T  -1.2413826789147817E-01         252045112.0        2848200345.0         154646410.0        1271924195.0        1873079261.0        3351978939.0        3281794178.0        2616230133.0        1457051261.0        2762791137.0        2480527362.0        2282316169.0        3281794178.0        2616230133.0        1457051261.0        2762791137.0        2480527362.0        2282316169.0
Wiener process for Thermostat # 9        1 F T T   1.0331244080464512E+00        3784506675.0        1914172684.0        3527875272.0        1610827989.0        3855196701.0        1117597481.0        3777646647.0        1837464056.0        4204654757.0         664239048.0        4190510072.0        2959195122.0        3777646647.0        1837464056.0        4204654757.0         664239048.0        4190510072.0        2959195122.0
Wiener process for Thermostat # 10       1 F T T   2.1466585360569199E-01        3057685686.0        2869029583.0         411221469.0        2821893460.0         322924656.0        1143227575.0        4215590817.0        3862461878.0        1087200967.0        1544910132.0         936383720.0        1611370123.0        4215590817.0        3862461878.0        1087200967.0        1544910132.0         936383720.0        1611370123.0
Wiener process for Thermostat # 11       1 F T T  -4.4132046785776799E-02        1554543736.0        2717576499.0        4135075403.0        2618383353.0         642871762.0         249586537.0        1683636369.0         362165168.0         814316280.0         869382050.0         980203903.0        2062101717.0        1683636369.0         362165168.0         814316280.0         869382050.0         980203903.0        2062101717.0
Wiener process for Thermostat # 12       1 F T T  -5.6161533877704317E-01        1770324141.0        3770017049.0         190859559.0         764828178.0        2918138424.0         736540625.0         272317999.0         166758548.0         310112982.0         201045826.0        1680231254.0         118290799.0         272317999.0         166758548.0         310112982.0         201045826.0        1680231254.0         118290799.0
Wiener process for Thermostat # 13       1 F T T   9.7554409384929153E-01        3627045108.0        1898589428.0        2752141753.0          85759421.0        2499273175.0        1137986601.0        2245755202.0        1652682525.0        2865544364.0         721509566.0         209733568.0         592362218.0        2245755202.0        1652682525.0        2865544364.0         721509566.0         209733568.0         592362218.0