 # Version information for this restart file 
 # current date 2022-11-29 20:44:27.815
 # current working dir /home/kc5054/CHEM2671/comp-lab-class/Week12/Runs/Proton
 # Program compiled at                              Sat Dec 12 18:27:15 EST 2020
 # Program compiled on                                         cs001.nyu.cluster
 # Program compiled for                                                nyu-intel
 # Source code revision number                                       git:8c64c6e
 &GLOBAL
   PRINT_LEVEL  LOW
   PROJECT_NAME proton_aimd_1ns_every0.5fs
   RUN_TYPE  MD
   WALLTIME 21600
 &END GLOBAL
 &MOTION
   &GEO_OPT
     OPTIMIZER  BFGS
     MAX_ITER  100
     MAX_DR     3.0000000000000001E-03
     &BFGS
     &END BFGS
   &END GEO_OPT
   &MD
     ENSEMBLE  NVT
     STEPS  2000
     TIMESTEP     4.9999999999999994E-01
     STEP_START_VAL  1997
     TIME_START_VAL     9.9849999999998249E+02
     ECONS_START_VAL    -1.1027364005818235E+03
     TEMPERATURE     3.0000000000000000E+02
     &THERMOSTAT
       TYPE  GLE
       REGION  MASSIVE
       &GLE
         NDIM  5
         A_SCALE     1.0000000000000000E+00
         A_LIST     1.8595758612559999E+02    2.7263853498399998E-01    1.1526100454610001E+01   -3.6414578262600003E+01 \
             2.3173375816020001E+02
         A_LIST    -2.7809524712060002E-01    8.5951591808710006E-05    7.2189048017650004E-01   -1.9844539343859999E-01 \
             4.2409257583420001E-01
         A_LIST    -1.4825808131210000E+01   -7.2189048017650004E-01    1.3590902121280000E+00    5.1498896280349999E+00 \
            -9.9949268450990001E+00
         A_LIST    -1.0372189126880000E+01    1.9844539343859999E-01   -5.1498896280349999E+00    2.6661910891169999E+01 \
             1.1507715495310000E+01
         A_LIST     2.1801346360420001E+02   -4.2409257583420001E-01    9.9949268450990001E+00   -1.1507715495310000E+01 \
             3.0958394565589998E+02
         &THERMOSTAT_ENERGY
               4.3926874986145172E-04
              -1.9726555776923599E-03
              -2.9169202773015311E-03
              -2.5698697491047377E-03
              -1.8060007960216257E-02
              -5.5950279353241580E-04
              -7.4811056332824612E-03
              -8.9397089024710965E-04
               9.1308017502356297E-03
               3.4252995514244193E-03
               7.0468454551287996E-03
               8.1257579230292136E-04
              -6.7106997915560400E-03
               8.6169359986489492E-04
               2.5981859425754832E-03
              -9.8735921856862880E-03
               2.9432712586860100E-03
              -4.8889821346989430E-04
               4.8840953005099596E-03
               1.1447822511168491E-03
               2.8475476130233456E-04
               9.2764002852095805E-03
              -1.0029558141991768E-02
              -9.9678741931163752E-03
               3.2590774504826134E-03
              -4.7930015236126800E-03
              -1.7830057101593986E-03
              -1.7958044614871198E-03
              -4.0367175692922972E-04
               4.1667043141242806E-03
               1.7370041532086605E-03
              -3.9432205323114734E-03
               1.0218627234214857E-02
              -1.1013383897802655E-03
               1.4971048025363483E-03
               8.7286654866617266E-03
               2.6833177675233801E-03
              -2.9801763877426194E-03
               2.6492323712703895E-03
              -4.1558013051923732E-04
               6.7088896799905439E-03
              -6.4801920527193524E-03
               2.0217713779632396E-03
               4.0534860081183777E-03
               4.9465246559189163E-03
               3.2751636590305621E-03
              -6.9273144915678380E-03
               9.0943636095291568E-04
               4.9971346288097719E-03
              -1.5281328735709237E-03
              -1.8940691353068547E-03
               5.2674943806634410E-03
              -5.4996830217850087E-03
              -6.7475794481286567E-03
              -6.3683504667915057E-03
               1.4567803381616729E-03
              -2.6568456634077624E-03
              -9.0037304356104641E-03
              -1.4906561777582625E-03
               1.7654086516435540E-02
              -1.2767930856812978E-03
              -9.2361535091716827E-03
               1.7417769531736911E-02
              -1.1861328336512718E-02
              -1.2936523562938462E-03
               4.5765800583445629E-03
              -1.0147495485010392E-02
               1.4344595213471315E-02
               1.0162096507143266E-02
              -3.5697354427969255E-03
              -5.0099046157940971E-03
               8.5719860931487857E-03
              -1.5834358597993001E-03
               2.7873984749278292E-03
              -4.2891002961677653E-03
              -2.2727562563524602E-02
               1.5274014756123257E-02
               1.1153308833457172E-03
               5.5571012994544621E-03
              -4.7670814078770831E-03
               1.0134895454086667E-02
              -7.4961020175610786E-03
               1.7598753523375772E-03
              -1.2069389544213187E-03
               3.8252149524176907E-03
               9.0919606630938312E-03
              -3.6387918087600808E-03
              -6.1610369094644377E-03
               1.1532041386100290E-02
              -1.4682541722058629E-02
               9.5206930268897289E-04
              -9.1085517907128401E-03
               2.1713473813981679E-03
              -5.7331772112945052E-03
              -3.9671319721899662E-03
               8.8980936862099996E-03
               1.1780942087583976E-02
               5.7734530027956960E-04
               7.3890568341660893E-03
               3.0570970883717847E-03
              -3.5086421876489174E-03
              -3.2519027466106935E-03
               1.3424432432840683E-03
              -5.2317559791313275E-03
              -1.8787254881621870E-03
               1.4864741480177183E-02
               1.1430873314708470E-02
              -5.4823367267609719E-04
               6.4516910359699309E-03
              -4.2622155606844830E-03
               3.2383904527359536E-03
              -1.3256085076635751E-03
               5.8583358714605132E-03
              -2.8097344409136727E-03
               3.9224126295136288E-03
              -2.4078821892777134E-03
              -5.3186565601696587E-03
               4.7705174888630408E-04
              -4.4528047377552192E-03
               2.8520074948407562E-03
              -3.6124875791316157E-03
               7.5335772255298774E-03
               5.5442412460505264E-03
               4.0966096632402216E-03
              -2.5259278483774328E-03
              -1.2181310168419208E-02
               5.3987924576129522E-03
               1.0928927666910475E-03
              -1.0194782555460187E-03
               5.3105443816361406E-03
              -6.6858820765371455E-04
               4.4113172925416919E-03
              -5.8288264378728210E-03
               2.1198605965589471E-03
              -3.6271079373722667E-03
               6.0952870476545665E-03
              -1.9028748391685614E-03
              -3.3839652927615655E-03
               5.2092885827410050E-03
               1.9255510916613594E-03
              -1.4465735477825615E-02
               9.1047710622694563E-03
               1.8124185721029907E-02
              -2.0178495464886637E-02
              -1.3272563369793561E-03
              -2.8213927510297105E-03
               7.7144694544535727E-03
               8.6757484886004798E-04
              -6.1798751884075927E-04
              -7.0063205586082863E-03
              -1.5061114861466732E-02
               6.4040820427631066E-03
               7.0366034499408240E-03
               5.3820173142207217E-03
               5.9048749855875981E-04
              -2.4448648614965752E-03
               4.1103940521076540E-03
              -3.3222657355579848E-03
              -9.4420600499913986E-03
               1.5879409492278100E-03
              -4.9851840032054534E-03
               3.0304063219859646E-03
              -3.3961954660092935E-03
               1.3694942001636556E-03
               1.0762344195034416E-04
               2.5055870097255187E-02
               3.0900206776924134E-06
              -2.6241168418744670E-02
              -1.9355888090721548E-03
              -1.6597936198837571E-03
               5.5132342003215221E-03
               2.5959874985966511E-03
               8.6364755407555387E-03
               1.8828888282782371E-03
               6.2764442231853209E-03
               3.9323950413818927E-02
               1.3361893136362121E-02
               1.1578804148744772E-02
              -1.2032905342197997E-02
               1.6318572217647110E-03
              -1.8912648015629828E-03
              -8.9526527331375109E-03
               1.9267377178742003E-02
              -2.6667885796406812E-03
              -2.2957733002093787E-03
              -1.8444483060071732E-03
               1.5641610148665948E-02
               1.6131828499877606E-03
              -7.2249202503170745E-03
               1.6786261127624080E-03
              -6.5169067196781394E-03
               3.4835790129428513E-03
               4.4972411835516183E-03
              -1.9473744845732127E-03
               2.5047974264322424E-03
               9.0140400215928691E-03
              -9.2008053640805967E-03
               6.6229633719261669E-03
              -7.2983285854808138E-03
              -3.9089648212170909E-03
               9.8984840540080107E-03
               2.9532429029048776E-03
              -9.4523919000550293E-04
               9.5657931121108115E-03
              -9.8688096990065394E-03
              -7.8942232333476508E-03
               3.7969838628568037E-03
               8.8690012683784215E-03
              -1.3437626137393818E-02
               2.0059163028290333E-02
              -7.3867132758654907E-03
              -1.4748352571764066E-03
               6.2299439306933747E-03
               3.4266874786501225E-03
              -5.7631211375803433E-03
               3.5650643672711416E-03
              -1.6070849101276551E-02
               1.5902497444392739E-02
              -3.5355339203255037E-03
               3.9651514050556402E-03
               2.0125877219963632E-04
              -3.4396184793142001E-03
              -1.6598208558466630E-02
               5.3812665193042810E-03
               1.2694363320614667E-02
              -5.4062663593942833E-03
              -3.8497125244298315E-03
               4.9301191422822816E-03
              -3.4586331275921339E-03
               2.0239475651963263E-03
              -5.8278612368183984E-03
              -3.5134076266163140E-03
               1.1499158630875410E-02
              -5.0844139486518223E-03
               2.4145418123956959E-03
              -1.0225338179777691E-02
               7.4835902843173362E-05
               2.7651905730448874E-03
              -1.0019990530279149E-03
              -4.3321602470088749E-04
               7.2202653116967721E-04
               1.0281693248465262E-02
               5.8229659271253004E-03
              -3.8620499577570024E-03
              -1.6209351481413455E-04
               4.4227408160094918E-04
               7.8632669734829213E-04
               1.7760911109047932E-03
              -4.9156280715763317E-03
              -9.6242062788218299E-03
               1.0317100993433038E-02
              -1.7920686644587252E-03
              -9.0060019619554749E-03
              -7.3741503468627628E-03
               6.6699880884177106E-03
              -6.3075759449338856E-03
              -3.3893299341118928E-03
               6.4120314986073840E-03
              -4.6043124098808248E-03
               1.8679740957270127E-04
               6.7259601750695140E-03
               8.0125518240099381E-03
              -1.3316979192864197E-03
              -2.5845590320980663E-04
              -2.8213671808579688E-04
              -4.3315365777785051E-03
               9.2527238395960455E-04
               2.5428848225681209E-03
               1.0370177584903217E-03
               1.3596709938105279E-03
               4.6769181920654620E-03
              -1.5115465052668543E-02
               1.0826274137803025E-02
               6.5077046184310507E-03
              -1.8812459451157931E-04
              -2.5201661978795902E-03
              -1.0855251549070067E-02
               1.2739967443942740E-02
               5.4843970383589024E-05
               1.3838372335120159E-02
              -1.2046501022081700E-02
              -7.6359444036376298E-03
               2.1298708684404817E-03
               3.4707585517440550E-03
              -7.9895872311269863E-04
              -1.6974682044472015E-03
              -2.8298440284510252E-03
              -3.9600308489990245E-04
              -8.4340168957085637E-03
               2.0649349436761073E-03
               2.1491545183285551E-02
               5.1734931466822457E-03
              -5.1686056283406744E-03
              -1.8614149461304292E-03
               9.9605788086905918E-04
              -5.0374417365841003E-03
              -4.7515229206159734E-03
               1.7632961369137449E-02
              -5.4008974555973229E-03
              -3.2022562743901474E-03
               3.1108663678694995E-03
               1.0082950125619018E-04
               4.7257295803154655E-03
               2.2128316071023186E-02
               3.2192090847716383E-03
              -1.6266566707483592E-02
              -8.6447216563311381E-03
              -1.1749553231632908E-02
               1.2528993815617291E-02
               1.1827738992916309E-02
               2.5182113228491548E-03
              -6.1053422361007992E-03
               2.2279778563062142E-03
               1.0381087861275114E-03
              -8.3243582004038788E-04
              -1.8627931567463695E-03
              -1.1462985224235073E-02
               1.9738760742837938E-03
              -1.3710859946078671E-02
              -5.6835614141414262E-03
               5.3046591406266559E-03
               6.4913162336305060E-03
               4.3972927221385813E-03
               8.8922887881060855E-03
              -7.3961740068206744E-03
               1.4510669258191607E-02
               7.4299728423059029E-03
               2.8572493896098666E-03
               1.3712595717668301E-04
               7.2635872614520910E-03
              -1.2251214965261183E-02
               3.6561101307361794E-03
               3.2172013766319516E-03
              -5.0076266537759572E-03
               1.2285966628478339E-02
              -8.1897551035813240E-03
               1.9011277788598521E-03
               5.5854970133891770E-03
              -9.3172253461320300E-05
              -2.9435748358666051E-03
              -4.2834835964008361E-03
               1.4663247516165374E-03
               5.0759334560887522E-03
              -1.9992989872942595E-04
               5.3676432175894960E-03
              -3.3501772205326988E-05
               6.2951754017742450E-03
              -1.1970041625003855E-02
               1.2286439641383920E-02
              -2.5241824623039354E-03
              -3.9912165216886147E-03
               3.7151178261749136E-03
              -6.4856167801192327E-03
               7.8071382430985031E-03
              -5.4398092750228147E-04
              -1.5186340064956994E-03
               1.2178207515596837E-03
              -7.2443695405095109E-03
              -1.6074476515025093E-02
               7.1075970604308428E-03
               1.6038766828391569E-03
              -8.1885070877693155E-03
               2.0686271360345246E-02
              -3.7695169979282768E-04
              -1.8710989879254668E-03
               2.2957634577993194E-03
               1.5778603704680309E-02
               1.7880177070140543E-03
              -9.9516310742150862E-03
              -2.5163457579891282E-03
               1.4324145613113378E-03
               5.9561595287945541E-03
               1.0255006720304566E-03
              -3.4180582007155543E-03
              -1.2210869117910532E-03
               5.4722838802323667E-03
              -1.0333983777516976E-02
              -1.5576545664705507E-02
               1.4646423281870278E-03
               7.8590070659524582E-03
               9.0608157198194157E-03
               6.2970541888631030E-03
               6.1514478711669554E-03
               1.4191562035783055E-02
              -1.1486597433992397E-02
               3.7373067083830897E-03
               3.4876703989854207E-03
               7.0034225766925514E-05
               5.4172774974998233E-03
               6.5439501045610104E-04
              -7.0677081619347666E-03
               5.5968011001761289E-03
               2.3351056189350058E-03
              -7.7627337339590662E-03
               1.5863470855211247E-02
              -3.9376521963297405E-03
               1.4413844599095915E-03
              -7.3080014534865354E-03
               6.5132593010410657E-03
               3.4397308116110553E-04
               4.5483108183936444E-03
               2.7283612750893206E-03
               3.3263686696687264E-03
              -7.9598219803918187E-03
              -1.3141399783867557E-03
              -5.5425965844714898E-03
              -1.8668596957935497E-03
               4.0638620721875230E-03
              -5.9169286278653753E-06
               5.2218150636401421E-03
              -7.7449753130282278E-04
              -8.9080419685504154E-03
              -8.2753522575363374E-03
              -6.6120738615076406E-04
               4.2745273594112978E-03
               6.2961221414259009E-03
               3.6358264294453096E-03
               2.4069378288474347E-03
              -2.5153265598472497E-03
               2.2048986863292060E-03
              -6.3115526950801989E-03
               7.4123913367892579E-03
               1.5034005119581909E-03
              -4.3811976876478838E-03
               1.1907580479402231E-02
              -7.8639207553020448E-03
              -2.8314630990526209E-03
              -2.4240476374836556E-03
              -1.3955726665578216E-03
               3.7783515826961972E-04
              -2.8817069500145665E-03
              -8.3449874758196822E-03
              -7.6828048231543395E-03
               5.8334650211288447E-03
               1.0016259061140634E-02
               1.3785182192201588E-03
              -5.6352582702452001E-03
               1.0767315876660916E-03
              -1.0934736659329704E-02
              -7.0629862606199556E-03
               9.5764634734667401E-03
              -1.3955561697552668E-03
              -4.9105222624883874E-03
               1.0989011953466639E-02
               4.4397189766678547E-03
               9.2760185053059451E-03
               2.3860241756888450E-03
               1.3782438977666017E-02
               5.7658047519848661E-03
              -7.8626704924779113E-03
              -5.2772844163188762E-03
              -1.1527320399792427E-02
               3.3043367098908529E-03
              -2.5010869588896025E-04
               5.4357903338929326E-03
               5.6272025894365336E-04
              -1.4677645418080714E-02
              -4.1503430587797119E-03
              -4.5525266918405539E-03
               1.2287278217928555E-03
               1.2344587775735098E-02
               1.9322658712303234E-03
               7.0494347226443370E-04
               1.1821793401458818E-02
               1.1107254556745223E-03
               4.5550343157819478E-03
              -1.0737498157784169E-02
               2.9206809550788191E-03
               6.8335891409437455E-03
              -9.7582049568707384E-03
               3.2977354613716097E-03
              -2.7896308267082700E-03
               3.9946008510823201E-03
               2.4433526437081256E-03
               1.3775431610156706E-03
               1.2502514195830131E-02
               8.7167752521088472E-04
              -2.6879907775321267E-03
               2.5661143208084670E-03
              -6.1823531202601680E-03
              -1.8379592294434730E-03
              -3.3718275509196740E-03
               2.2019665870097425E-03
               7.3755557090820498E-03
              -4.1328312271609107E-03
              -4.7737360458878757E-03
              -6.1170851776503532E-03
               2.1067366589963199E-03
               2.4068258907262571E-03
              -1.1333737208419604E-03
               2.4968043602972521E-03
               7.1278645759560322E-03
               1.9407017119240518E-03
              -7.1584517101626723E-03
               9.5323917766948940E-04
               4.5545705125834305E-03
               3.5858360045709944E-03
              -1.6903876408969523E-03
              -9.8731252941819414E-04
               9.1949117986392694E-03
              -2.3522370746539749E-03
               7.0168808740922201E-03
              -6.3405659551802719E-03
               1.0475489069847960E-02
               1.3878686164304592E-03
              -7.0400907555352964E-03
              -2.8847117736515633E-03
              -1.1216740631833806E-03
               5.3189218425992099E-03
              -6.2383752291739528E-04
              -1.1962647556476858E-02
               8.1804001619429703E-03
               6.8003872508253229E-03
              -6.0231884876471367E-03
               8.1534190876279659E-03
              -2.0016075601663678E-02
              -1.1979103164449974E-02
               7.0222343833105530E-03
               4.9984298778575683E-03
               6.8207727077044507E-03
              -1.6473257746469641E-02
              -1.5009964965347498E-03
               1.0309811661724412E-02
              -2.3297386125301246E-04
               4.8854948819668717E-03
               1.8939512632564070E-03
              -1.6123589226381932E-03
              -3.5639774881384197E-03
              -9.5986935511530600E-04
              -5.4240105042598096E-04
               1.3436412344319909E-02
               2.0204487335803165E-03
              -1.4049731584585334E-02
              -4.4431333136365709E-03
               1.3444784451786311E-04
               3.2245125959620333E-03
              -2.4670390471390191E-03
              -3.9968825257455905E-03
              -5.5278285266185624E-03
               1.3234247017039851E-02
               4.7431113253146419E-03
              -1.0948071249443584E-03
              -3.1656036391949269E-03
              -1.5520770387963149E-03
               2.3339118556106675E-03
              -4.3209226140522678E-03
               1.0257464962482917E-02
              -6.9147036741683474E-03
               5.3351177286225524E-03
               6.1504699933716770E-03
              -2.0812922321132416E-03
              -2.7870725323329943E-03
              -2.5359834900653953E-03
              -1.7560191140578235E-03
              -2.7737621360114789E-03
               7.3547044942413710E-03
              -3.8976332614475747E-03
              -1.2211748077578272E-03
               7.4038397720148537E-03
               1.7601758247493523E-03
              -8.8264645418949445E-04
               9.5163102922611858E-03
              -1.9654466398847698E-03
              -2.3470166102079167E-03
              -5.9291291520486840E-04
               1.3345240917777206E-02
              -7.2118221610114278E-03
              -8.3179473672197989E-03
               1.8884476332073860E-03
              -2.3607349712832463E-03
              -4.4511649910375208E-03
              -3.9549999924996778E-03
              -5.9046851468152082E-03
              -8.4526524786914387E-03
               5.5695520147676309E-03
               1.1521131317876729E-02
               1.6821720300240428E-02
               3.0552921031541994E-03
              -5.6319974753404559E-03
         &END THERMOSTAT_ENERGY
         &RNG_INIT
Wiener process for Thermostat # 1        1 F T T   3.7280401166127353E-01        2396824340.0        1285798124.0        1970812289.0        4262378425.0        2500496477.0        3105761546.0             12345.0             12345.0             12345.0             12345.0             12345.0             12345.0             12345.0             12345.0             12345.0             12345.0             12345.0             12345.0
Wiener process for Thermostat # 2        1 F T T  -2.8031459711754392E-01        1517340215.0         764337745.0        1777988352.0        1272471177.0        3093987526.0        2495380513.0        3692455944.0        1366884236.0        2968912127.0         335948734.0        4161675175.0         475798818.0        3692455944.0        1366884236.0        2968912127.0         335948734.0        4161675175.0         475798818.0
Wiener process for Thermostat # 3        1 F T T   7.0414863813957229E-01        1874984675.0        3540139467.0        3102430019.0        1608426380.0         643336117.0        1230365417.0        1015873554.0        1310354410.0        2249465273.0         994084013.0        2912484720.0        3876682925.0        1015873554.0        1310354410.0        2249465273.0         994084013.0        2912484720.0        3876682925.0
Wiener process for Thermostat # 4        1 F T T   2.2606224243119818E-01        3416187057.0        1637601412.0         393440280.0        2948182120.0        3407482107.0        2343296956.0        2338701263.0        1119171942.0        2570676563.0         317077452.0        3194180850.0         618832124.0        2338701263.0        1119171942.0        2570676563.0         317077452.0        3194180850.0         618832124.0
Wiener process for Thermostat # 5        1 F T T  -1.0267294306732384E+00         315072143.0        4137263975.0        4196656129.0        1282237791.0        3639735469.0        1937530485.0        1597262096.0        3906379055.0        3312112953.0        1016013135.0        4099474108.0         275305423.0        1597262096.0        3906379055.0        3312112953.0        1016013135.0        4099474108.0         275305423.0
Wiener process for Thermostat # 6        1 F T T   9.2624835653208748E-01        3222219212.0        3105331301.0        2094058484.0        2511776071.0        3719186732.0        3505559269.0          97147054.0        3131372450.0         829345164.0        3691032523.0        3006063034.0        4259826321.0          97147054.0        3131372450.0         829345164.0        3691032523.0        3006063034.0        4259826321.0
Wiener process for Thermostat # 7        1 F T T  -4.6721006089689310E-01        2921304001.0        3534845789.0         764942181.0        2980414860.0        2807768180.0         274774080.0         796079799.0        2105258207.0         955365076.0        2923159030.0        4116632677.0        3067683584.0         796079799.0        2105258207.0         955365076.0        2923159030.0        4116632677.0        3067683584.0
Wiener process for Thermostat # 8        1 F T T   4.8809173354813140E-01        3327178806.0        3682317356.0        2663069382.0         319044460.0        3975670735.0         562702070.0        3281794178.0        2616230133.0        1457051261.0        2762791137.0        2480527362.0        2282316169.0        3281794178.0        2616230133.0        1457051261.0        2762791137.0        2480527362.0        2282316169.0
Wiener process for Thermostat # 9        1 F T T  -8.1805399140306756E-01         433221438.0         349071730.0        2033385903.0        2639944804.0        3988392127.0        3801627598.0        3777646647.0        1837464056.0        4204654757.0         664239048.0        4190510072.0        2959195122.0        3777646647.0        1837464056.0        4204654757.0         664239048.0        4190510072.0        2959195122.0
Wiener process for Thermostat # 10       1 F T T  -2.7062828385550008E-01        2290601073.0        1666814614.0        3289919364.0        2930088785.0        1500929831.0        1860303943.0        4215590817.0        3862461878.0        1087200967.0        1544910132.0         936383720.0        1611370123.0        4215590817.0        3862461878.0        1087200967.0        1544910132.0         936383720.0        1611370123.0
Wiener process for Thermostat # 11       1 F T T   6.8652417552969780E-01        2151060734.0         580174056.0        1748210725.0         399674445.0        1879492130.0        2741776977.0        1683636369.0         362165168.0         814316280.0         869382050.0         980203903.0        2062101717.0        1683636369.0         362165168.0         814316280.0         869382050.0         980203903.0        2062101717.0
Wiener process for Thermostat # 12       1 F T T   1.2985463821691814E+00        3478492904.0        1830493925.0          17364685.0        2058676739.0        2676153401.0        4087350495.0         272317999.0         166758548.0         310112982.0         201045826.0        1680231254.0         118290799.0         272317999.0         166758548.0         310112982.0         201045826.0        1680231254.0         118290799.0
Wiener process for Thermostat # 13       1 F T T   2.0061703114922356E+00        2097018817.0        1300727704.0         367347443.0         582130443.0        2824054692.0        3111690587.0        2245755202.0        1652682525.0        2865544364.0         721509566.0         209733568.0         592362218.0        2245755202.0        1652682525.0        2865544364.0         721509566.0         209733568.0         592362218.0