 # Version information for this restart file 
 # current date 2022-11-29 17:06:43.368
 # current working dir /home/kc5054/CHEM2671/comp-lab-class/Week12/Runs/Proton
 # Program compiled at                              Sat Dec 12 18:27:15 EST 2020
 # Program compiled on                                         cs001.nyu.cluster
 # Program compiled for                                                nyu-intel
 # Source code revision number                                       git:8c64c6e
 &GLOBAL
   PRINT_LEVEL  LOW
   PROJECT_NAME proton_aimd_1ns_every0.5fs
   RUN_TYPE  MD
   WALLTIME 21600
 &END GLOBAL
 &MOTION
   &GEO_OPT
     OPTIMIZER  BFGS
     MAX_ITER  100
     MAX_DR     3.0000000000000001E-03
     &BFGS
     &END BFGS
   &END GEO_OPT
   &MD
     ENSEMBLE  NVT
     STEPS  2000
     TIMESTEP     4.9999999999999994E-01
     STEP_START_VAL  500
     TIME_START_VAL     2.4999999999999795E+02
     ECONS_START_VAL    -1.1027364005818235E+03
     TEMPERATURE     3.0000000000000000E+02
     &THERMOSTAT
       TYPE  GLE
       REGION  MASSIVE
       &GLE
         NDIM  5
         A_SCALE     1.0000000000000000E+00
         A_LIST     1.8595758612559999E+02    2.7263853498399998E-01    1.1526100454610001E+01   -3.6414578262600003E+01 \
             2.3173375816020001E+02
         A_LIST    -2.7809524712060002E-01    8.5951591808710006E-05    7.2189048017650004E-01   -1.9844539343859999E-01 \
             4.2409257583420001E-01
         A_LIST    -1.4825808131210000E+01   -7.2189048017650004E-01    1.3590902121280000E+00    5.1498896280349999E+00 \
            -9.9949268450990001E+00
         A_LIST    -1.0372189126880000E+01    1.9844539343859999E-01   -5.1498896280349999E+00    2.6661910891169999E+01 \
             1.1507715495310000E+01
         A_LIST     2.1801346360420001E+02   -4.2409257583420001E-01    9.9949268450990001E+00   -1.1507715495310000E+01 \
             3.0958394565589998E+02
         &THERMOSTAT_ENERGY
              -2.7867755309651230E-03
              -1.0710677102125339E-03
              -1.0860582428144727E-03
               1.7951196883506557E-03
              -7.0050288623275643E-03
               5.7404047338722834E-04
              -2.1363941967765922E-03
              -2.3339058844339365E-03
               8.1403277267077991E-03
               2.4294518094100962E-03
               6.6845726561930753E-03
              -3.2352486501838998E-03
               3.4010234870986982E-03
              -8.9835283024251975E-04
               1.5645980603436181E-03
              -3.9834582104256435E-03
               2.0296638613086478E-03
              -2.6654074778361867E-03
               5.2034713064769266E-03
              -2.6490741615578398E-04
               2.5215524875664189E-03
              -3.7952598635360266E-03
              -9.8567006134042115E-04
               2.0812978443027338E-03
              -3.4871573797105753E-03
              -1.7638799242222954E-04
              -3.7387501934672460E-03
               4.8980705454571257E-03
               2.6505767452364464E-04
               9.5931060039301818E-04
              -5.1340460520831856E-03
               2.7245047224736451E-03
               6.0859686191724032E-03
              -6.5636377789709692E-05
              -2.0788030900763242E-03
               4.5190919150105164E-03
              -1.5063729012394834E-03
               2.5648188788903370E-04
               1.8384015563448961E-03
              -3.4598438833738001E-03
               4.3111502788867329E-03
              -2.1445689701767072E-04
               2.4946590444491286E-03
               3.5396705317463622E-03
              -7.8484815629245239E-03
               5.5801124182299731E-03
              -2.5942056651024393E-03
               1.0837021359974130E-03
              -4.7671909081545595E-03
               1.4146817690533959E-03
               9.0952620334087085E-04
              -3.0616618582972382E-03
               6.9706394766706520E-04
               1.1027358029912283E-03
              -5.3558533831972819E-03
               3.3499024033092485E-03
               7.3890657704929355E-04
               2.5504824123349402E-05
               1.4650705609246504E-03
               4.3543784193850179E-03
              -1.5105739224634026E-03
               1.2147225849737961E-03
               4.0680535250902173E-03
               9.8226345501297731E-04
              -3.1129652271596094E-03
               2.2738395746607167E-03
               1.6294448732139494E-03
               5.0299793080987735E-03
               5.8569840710577508E-03
              -1.7482178599778487E-04
               2.3699051863007581E-03
              -2.0034472670890963E-03
              -1.6499024133472086E-03
               5.2965292508052914E-04
              -3.8308946065263283E-03
              -1.9884291179130815E-03
               4.3818280388186305E-03
              -9.7823109701868560E-04
               5.1832288758213180E-03
              -2.8192690990490907E-04
              -2.1391068929465617E-03
              -1.1424209546119259E-03
               1.8486919736676547E-03
              -3.6423732612648309E-03
               2.4402498856058059E-03
               2.3114594822842534E-04
              -5.2521477886230050E-03
               4.5760606786207419E-03
               3.9294665315964530E-03
              -7.1742542492341634E-03
               7.5303211047616225E-03
              -4.7957954799097589E-03
               6.9193956436899991E-04
               3.2807666195584879E-03
              -5.6967919937467087E-03
               7.0965378514624144E-03
               2.3986337160609226E-03
               3.2594643220845917E-03
               2.9753606648462556E-03
               3.4197499732344398E-03
               2.2339608714251223E-03
              -3.3860436936826938E-03
              -9.5927382287936281E-04
              -3.0390360687230786E-03
               3.2012360172940339E-03
               5.7030371783350984E-04
               4.4293531320755116E-03
              -1.2379765888297469E-03
               4.7857691482490576E-03
              -4.0249559256739316E-04
               2.5348813132526457E-03
              -9.3535902906447064E-04
               2.3703166824711702E-03
               2.5340420167219426E-03
               2.3412003159645959E-03
               3.5601262046709632E-03
              -6.5028670252674295E-03
               3.9929551061924614E-03
              -3.6942469638687365E-03
              -7.0473350798677659E-04
              -4.0277763262422947E-03
               3.9979399822276246E-03
               4.1124088547354184E-03
               2.8399143439301619E-03
              -5.9388066682070726E-03
              -3.9222281567361482E-03
               7.8856291389630480E-04
               5.6862571296634255E-04
               2.7494328069989889E-03
               1.9619540076925897E-03
              -3.8599117927117250E-03
               2.2829743156627244E-03
               1.9114888497095213E-03
              -4.1709126153972485E-05
              -3.2858783826532774E-03
               3.2695246968778768E-03
              -2.2645445499316313E-03
              -9.4751126257520447E-04
               3.8879466011289439E-04
              -4.7722047739686422E-03
               4.4003891258888560E-03
              -1.1711768575778923E-03
               2.0958459455669661E-03
              -2.1357549538304236E-03
              -4.5998922903204269E-03
              -4.7223047517535787E-03
               5.4510437717592798E-03
              -3.7245969768277534E-03
              -1.6141025555576549E-03
               6.8274106848622788E-03
              -6.9468712514454316E-03
               3.1042239515476104E-03
              -3.0805194818633260E-03
               2.3586890716161065E-03
               3.5048052936938775E-04
              -2.8648861638747064E-03
               1.8457912161638141E-03
              -2.8474158055521882E-03
              -1.6070357396074605E-03
               1.6108895293484049E-03
              -3.6076588319094733E-03
               1.2447702009392987E-03
              -3.3562935896744050E-05
              -8.1888468628913324E-04
               3.0265131831831871E-03
               7.8245572512946667E-03
               1.6921677957293080E-03
              -7.4383727905790818E-03
              -2.8601200720290805E-03
               3.9662653367790700E-03
               8.9618829015582506E-04
               6.3611010344922459E-03
               6.7294870872743121E-03
               5.1321659365401121E-03
               5.3914335710077022E-03
               3.3269515242408759E-02
               1.5537800165690127E-02
               6.0965518245129652E-03
               1.0037609585237593E-03
               3.2136663388953558E-03
               4.3167296303578831E-03
              -1.0111485234012439E-03
               7.6258266200684918E-03
              -4.3843388673734628E-03
              -3.2763244526881890E-04
              -5.9515481529415920E-04
               5.1792681281858143E-03
              -5.2895834859667101E-03
              -1.9376200418976576E-03
              -2.6290546322256456E-03
              -2.6693839724124205E-04
               1.8781722254238812E-03
              -1.9470557657426792E-03
              -4.6747564472316271E-03
               1.5941365399213632E-03
               1.8134637683783429E-03
              -2.9418777714349136E-03
               8.9194220449136346E-04
               8.1818540005196099E-05
               4.7578025627389997E-03
               1.0178433917823288E-03
               3.3183325864363277E-03
               2.4057902568550503E-03
               3.4512207519477758E-03
              -6.4706855973915194E-03
              -5.8511932197315023E-03
               1.9471695478060942E-03
               1.0377510192929240E-03
              -9.1264410352420132E-03
               8.1671398907105629E-03
              -1.2510249266677990E-03
              -9.9393285993683842E-05
               8.0188621035176683E-03
               2.1027782389195014E-03
              -9.4242465757008332E-03
               7.3710118942904353E-03
              -2.4588136243278596E-03
               2.1573664546603488E-03
              -3.4341738367507568E-03
               4.9941291753301373E-04
              -1.9091288474920236E-03
               1.1687126218478935E-04
              -1.1506088944092439E-03
               4.4591607096207257E-05
              -2.7227663178153770E-03
              -1.5346299834438903E-04
               1.1593127732550633E-03
              -4.9580230957165146E-04
              -1.8442313141089170E-03
              -1.3555878793123544E-03
              -3.3476544096929682E-03
               5.6490269155276222E-03
               6.7597998817550556E-03
              -2.8251642398796828E-03
              -1.9940219758909357E-03
               4.7369522868701474E-05
              -4.0837166081693190E-03
               2.4286343384424562E-03
              -3.2676432318996037E-04
               7.6356186309357236E-04
              -4.0379538120546175E-03
               2.8486119280843494E-03
               2.2398744865600715E-03
               2.0114411661949964E-04
              -1.1455964395365771E-03
              -1.5992899137532402E-03
               1.8437942106188472E-04
              -2.4262446900770399E-03
              -1.4652720719025645E-03
              -3.3872208220642836E-03
              -5.1208430579023189E-04
               1.5422503892886729E-03
              -3.4201464430502360E-03
              -7.7890549289560886E-04
               6.0939354026847822E-03
              -2.8161281812544583E-03
              -9.9571108762297640E-04
              -7.1552050552543551E-04
               1.4172458004503823E-04
              -2.0772760525784835E-03
               2.9127245407934324E-03
               3.4687403468707974E-03
               3.7641031789392232E-03
              -2.9087061728298692E-04
               4.2097371352662358E-04
               3.6774916523221713E-04
              -2.7855551159678290E-03
               2.6970563527327129E-04
              -5.1515910249284019E-03
               3.4629207659220783E-03
              -2.4567889788280179E-03
              -6.9905788927856335E-03
               5.3905736743196605E-04
               8.2554971419764316E-04
              -2.0967969577816632E-03
              -2.4431688865632758E-03
              -1.8978753903838028E-03
               6.0288453380719694E-03
              -1.0737290141591836E-03
               5.4613493182211913E-04
              -3.0530158762745144E-03
              -4.1996048733922552E-03
               2.3825500369805039E-03
               6.3876128985606304E-05
               9.9486514859088541E-04
               2.2036481106623091E-03
               4.5121135543577405E-04
              -6.3669927549826529E-03
              -2.6623313164137732E-03
               2.7534150248735103E-03
               3.0278930448874525E-03
              -1.1244432359290639E-04
               5.1720547884297869E-04
               1.6310114246295216E-03
              -5.9728540296745598E-04
               8.0054820075761094E-03
              -6.4142367249935108E-03
               3.8125015510326451E-03
              -3.9193429052691517E-04
              -3.3132064072034320E-03
              -7.3395554697572502E-04
               1.2426339149084406E-03
               3.8821129629912272E-03
               7.9130092925484008E-03
              -4.4599341465454919E-04
              -3.6322618042506352E-03
              -5.3566759160878184E-03
               1.0697676013985064E-03
              -2.1468828874530969E-04
               4.3170217368695279E-04
               9.0197586948735360E-05
              -3.2054778122287382E-03
               2.9792569863221889E-03
               7.9962328987252254E-04
              -6.1815413316009156E-04
              -3.4152439708022972E-03
              -4.4349618332302099E-03
               4.0437848119154489E-03
              -1.7339625652472580E-03
               1.3942040136939340E-03
               3.1752892470002080E-03
              -1.8041773014795398E-03
              -9.1704489188802947E-04
              -3.2485452308082304E-03
               1.6825814065774903E-03
               3.7361254331066919E-03
               2.8804427673217877E-03
               1.4805973283345867E-03
               1.2447526740791937E-03
              -1.2521972341871283E-03
              -3.0028126685569118E-03
               3.2074533524908489E-04
               2.2346631910167831E-03
               3.2843631730671216E-03
              -2.5323338267606208E-03
               1.8243795659632247E-04
               1.1578038103056338E-03
               5.5808277312688033E-04
               4.5413898904918051E-03
               4.1001118834329874E-03
               5.6694378019568462E-04
               3.8556484498416464E-04
               1.9556146485985577E-03
               1.4315792501368740E-03
              -6.0048163792928940E-04
               1.9323744194712480E-04
               1.0964077460000592E-03
              -8.9866216287055574E-04
               2.3475202585328662E-03
              -3.9711010672573164E-03
               6.8631848363515493E-04
               1.2794323762237174E-03
              -7.5550831897245240E-04
               4.8109558734082776E-03
              -2.6360381139138188E-03
               1.4086786217354505E-03
              -2.0288865255230285E-03
               4.1829616560301926E-03
              -6.9719647260661234E-05
              -5.8303733915157450E-03
               2.7957073458518321E-03
              -3.6599415993320184E-03
               9.0139975415249544E-03
               3.8745084901445409E-03
               3.5576325358386489E-04
               2.4168386704758477E-03
               9.3370614447506241E-03
               7.5960407015229867E-05
              -1.0911623580537752E-02
               1.1866320302431387E-03
              -4.1291174442613455E-03
              -1.7521344379437943E-03
               1.1662987902657383E-03
              -1.5440766341536902E-03
              -2.6940027328822926E-03
               3.6955689128460520E-03
              -3.8208917511436862E-03
              -6.2786052523692241E-03
               8.9291045143737155E-04
               4.2783112430594362E-03
               7.1364603472784892E-04
               1.7401822658112544E-03
               5.6001066354054822E-03
               1.4262823027949801E-02
              -1.0137732296967733E-03
               1.4082835365285113E-03
               2.9883817134465662E-03
               2.3041719081457481E-03
               7.2903058673821014E-03
               2.3841828757618501E-03
              -1.9878369121530707E-03
               3.4995316577053435E-03
              -1.5336417470190788E-03
              -6.0870654665986703E-03
               2.7723372772683200E-03
               2.4458534695014334E-03
               2.6406348356823408E-03
               3.8610452130307586E-04
               1.5293420582705019E-03
              -3.0177413362383922E-03
              -2.7547800729545765E-03
               2.1503076397656144E-03
               6.3199298973224214E-03
               1.9718770423207562E-03
              -4.8140866192756069E-03
              -2.0880192011380329E-03
               3.0330843991009035E-03
              -7.3694637703972674E-03
              -3.3080809043977760E-03
               2.0216896099694796E-03
              -4.7877205699117087E-04
              -4.4571634931573798E-04
               9.1312189343112257E-05
              -5.3695761862071591E-03
              -2.3939560828100536E-03
               6.0620688762800246E-03
              -2.6401024558295565E-03
               1.2509121094635249E-03
              -7.3284178132061316E-04
              -1.1372552074076054E-03
               1.5820465256576291E-03
              -1.8021714959268345E-03
               9.6580977617964105E-04
              -4.1670218309531834E-04
               9.0194098127320240E-04
               1.8065894258386115E-03
               1.3836949957238569E-03
              -5.4433146377471688E-03
               7.2850742975297765E-04
               7.5093901739078962E-03
              -8.4230567419781976E-04
              -1.8394486357669101E-03
              -7.7138503929415981E-04
              -3.5307216082367497E-03
               1.4985435252243627E-03
               4.5963058434145597E-03
               1.3711654752911954E-05
              -1.0260327609900499E-03
               8.8369123485734237E-04
               1.2822189581933418E-03
               3.2315567112137403E-03
               7.2244352871989029E-05
              -4.6851270604806125E-04
               2.8165223475719249E-03
               2.2543339615590614E-03
               7.2412747054728908E-03
               4.9438308875479941E-03
              -1.2744925551978125E-03
              -1.7917961741942387E-03
              -1.2587050671954768E-03
              -3.4420119672246277E-03
              -7.2937310532100548E-03
               4.7473115469505601E-03
              -5.1124361845632411E-04
              -1.0333029947840388E-03
              -2.2355683816889698E-03
               4.2707229373836796E-04
              -1.6497874454341934E-03
               1.3197754729889466E-03
               5.4243842622210851E-04
              -1.4126508831927441E-03
               3.8896005344214056E-03
              -1.2144507745790651E-03
               1.1838992432718740E-03
               6.5797931432626470E-03
               3.8291973543147393E-03
              -4.2714768294283608E-03
              -2.1135774204468077E-03
               3.5649749946928971E-04
               1.1199323728506049E-03
              -3.8276815254771153E-03
              -7.6549072642590203E-04
               3.8527163486931281E-03
              -4.7891800872906532E-04
              -1.6719955054131453E-03
               5.8931322179688458E-03
              -3.1863113253798329E-04
               4.5395632298833995E-04
              -4.3153168356713182E-03
              -7.4580382861936514E-04
              -8.6730461052775720E-04
              -1.2208454973310946E-04
               9.3794011241523398E-04
               3.7988146155049042E-03
               1.1441384571066978E-03
               9.3221307261791566E-05
              -5.2166270716475548E-03
              -5.0694667668663221E-03
               5.0311048457796614E-03
               3.5782543686639092E-04
              -1.3646404496973248E-03
               3.8777758236756420E-03
              -3.0318587893563057E-03
              -4.2293132893669776E-03
               3.6450831527821037E-03
              -6.6848727925407827E-03
               5.9399414251200093E-03
               5.6090349061936086E-03
               5.4505123229184769E-03
               2.9672609954096377E-03
              -2.0701418845371737E-03
              -8.0955706491293183E-04
              -9.4106148477090552E-03
               6.3633172715397753E-03
              -1.1033360767248154E-03
              -5.3416449824306616E-03
              -3.3717129442930254E-04
              -9.5787369551924130E-04
               5.4991109043035129E-04
               3.2799077087482002E-03
               4.3834948257742796E-03
              -6.8584806325005143E-04
              -2.5681003691752800E-03
              -6.5311690980216228E-03
               1.8784875672151584E-03
               2.3260115810488811E-03
              -5.3615622110294728E-03
               3.5323728719247943E-03
               5.4318664790268534E-03
              -3.6184894387992746E-03
              -3.5570882451198580E-04
               7.5460149296379775E-04
               4.9031208603589826E-04
              -3.5278552026571102E-03
              -9.7230496681832538E-04
               5.5741685122155508E-04
               9.1431041056367832E-05
               9.4093069708079324E-05
               5.8370453779168366E-03
               3.2354189926770680E-03
              -2.3805381472960332E-03
              -2.9822231781063383E-03
               6.5422809509079925E-04
              -6.6382195430755011E-03
               2.0955962033979742E-03
               6.5933382929084878E-05
               2.2725769794802001E-04
               8.7803894320925835E-04
               1.1969189288834315E-03
              -1.7163452650293819E-05
               1.9363545451000807E-03
               1.1981561423280948E-03
              -3.3079703093177064E-03
              -1.8770253339998836E-04
               2.0048474649642218E-03
              -9.2987305947035996E-04
               2.5676019963910188E-04
               3.6054641868258196E-03
               4.1342220445695485E-03
               4.8972630206969413E-03
              -7.4471872130258089E-03
              -2.6501004387654006E-03
               1.8775021893840472E-04
               1.7441301760088050E-04
              -1.6166459198157070E-03
              -8.2139376698791480E-03
               3.8004676938343049E-04
              -1.2754201005129721E-03
               6.6216904116340215E-03
               1.8241985024997083E-03
               4.7290319362411183E-03
               2.1211033231066569E-04
              -4.5866459930201081E-04
               3.8044403148747774E-03
               6.2851062074547887E-04
               6.8477083359448120E-03
              -6.8157836098706294E-03
              -5.5624974506826410E-03
               4.5726781358603405E-03
              -5.8119308607190098E-03
               1.6016506983263109E-03
              -4.7746685437162449E-03
              -3.9182620504632278E-03
              -3.8723387256108352E-03
               4.2069281210401844E-03
              -1.9710612851801070E-03
               1.4973394704403398E-03
               9.9565844518187830E-03
              -2.3680887597805986E-03
         &END THERMOSTAT_ENERGY
         &RNG_INIT
Wiener process for Thermostat # 1        1 F T T  -1.5505429657892764E+00         661802595.0        2026459976.0        3136775027.0        3268219721.0        1056216878.0        3744216088.0             12345.0             12345.0             12345.0             12345.0             12345.0             12345.0             12345.0             12345.0             12345.0             12345.0             12345.0             12345.0
Wiener process for Thermostat # 2        1 F T T   1.5766939834860993E-01        2521559082.0        1979391111.0        3972826820.0        2839528192.0        3960449033.0        3051881342.0        3692455944.0        1366884236.0        2968912127.0         335948734.0        4161675175.0         475798818.0        3692455944.0        1366884236.0        2968912127.0         335948734.0        4161675175.0         475798818.0
Wiener process for Thermostat # 3        1 F T T  -1.6802103653762466E+00        2464096834.0        3454226368.0         668358963.0        3607867155.0        2139338144.0        1695442074.0        1015873554.0        1310354410.0        2249465273.0         994084013.0        2912484720.0        3876682925.0        1015873554.0        1310354410.0        2249465273.0         994084013.0        2912484720.0        3876682925.0
Wiener process for Thermostat # 4        1 F T T  -9.2120442907176847E-01        3007810664.0         626544053.0           5688727.0        2019501767.0        4050809287.0        2188826537.0        2338701263.0        1119171942.0        2570676563.0         317077452.0        3194180850.0         618832124.0        2338701263.0        1119171942.0        2570676563.0         317077452.0        3194180850.0         618832124.0
Wiener process for Thermostat # 5        1 F T T   1.9586792436148486E+00        3119398129.0        2238966874.0        1731687009.0        1729823850.0        3912388439.0         182524877.0        1597262096.0        3906379055.0        3312112953.0        1016013135.0        4099474108.0         275305423.0        1597262096.0        3906379055.0        3312112953.0        1016013135.0        4099474108.0         275305423.0
Wiener process for Thermostat # 6        1 F T T  -2.2012851380256623E-01         527820745.0        2447393615.0         338698828.0         653439858.0         976211817.0        3944196308.0          97147054.0        3131372450.0         829345164.0        3691032523.0        3006063034.0        4259826321.0          97147054.0        3131372450.0         829345164.0        3691032523.0        3006063034.0        4259826321.0
Wiener process for Thermostat # 7        1 F T T  -1.2191095662093037E-02         167278661.0        2992638024.0        1197931920.0         124710794.0         889033703.0        2194094787.0         796079799.0        2105258207.0         955365076.0        2923159030.0        4116632677.0        3067683584.0         796079799.0        2105258207.0         955365076.0        2923159030.0        4116632677.0        3067683584.0
Wiener process for Thermostat # 8        1 F T T  -2.6373530393371375E-01        2923147749.0        3809475671.0         892364519.0        3114385888.0        3523415917.0        3402922821.0        3281794178.0        2616230133.0        1457051261.0        2762791137.0        2480527362.0        2282316169.0        3281794178.0        2616230133.0        1457051261.0        2762791137.0        2480527362.0        2282316169.0
Wiener process for Thermostat # 9        1 F T T  -1.2388913960989989E+00         276694386.0        3384434371.0        2194062143.0        3864498526.0        2498625561.0        4174179731.0        3777646647.0        1837464056.0        4204654757.0         664239048.0        4190510072.0        2959195122.0        3777646647.0        1837464056.0        4204654757.0         664239048.0        4190510072.0        2959195122.0
Wiener process for Thermostat # 10       1 F T T  -6.9271884074884071E-01         298842605.0        4183294382.0        3769908432.0        1623977651.0        3452521187.0         349927101.0        4215590817.0        3862461878.0        1087200967.0        1544910132.0         936383720.0        1611370123.0        4215590817.0        3862461878.0        1087200967.0        1544910132.0         936383720.0        1611370123.0
Wiener process for Thermostat # 11       1 F T T  -3.9199517781213300E-01        1183014876.0        2469777470.0        2706060047.0        1374668043.0         490283634.0         131761905.0        1683636369.0         362165168.0         814316280.0         869382050.0         980203903.0        2062101717.0        1683636369.0         362165168.0         814316280.0         869382050.0         980203903.0        2062101717.0
Wiener process for Thermostat # 12       1 F T T   1.2248374085476998E+00         744312290.0        1838623065.0        1895433531.0        2930723882.0        3034111406.0        1223209339.0         272317999.0         166758548.0         310112982.0         201045826.0        1680231254.0         118290799.0         272317999.0         166758548.0         310112982.0         201045826.0        1680231254.0         118290799.0
Wiener process for Thermostat # 13       1 F T T   1.6053528300026945E-02         341235087.0         365462780.0         607175623.0        3292057964.0        1611524565.0         256574977.0        2245755202.0        1652682525.0        2865544364.0         721509566.0         209733568.0         592362218.0        2245755202.0        1652682525.0        2865544364.0         721509566.0         209733568.0         592362218.0