 # Version information for this restart file 
 # current date 2022-11-29 20:44:57.531
 # current working dir /home/kc5054/CHEM2671/comp-lab-class/Week12/Runs/Proton
 # Program compiled at                              Sat Dec 12 18:27:15 EST 2020
 # Program compiled on                                         cs001.nyu.cluster
 # Program compiled for                                                nyu-intel
 # Source code revision number                                       git:8c64c6e
 &GLOBAL
   PRINT_LEVEL  LOW
   PROJECT_NAME proton_aimd_1ns_every0.5fs
   RUN_TYPE  MD
   WALLTIME 21600
 &END GLOBAL
 &MOTION
   &GEO_OPT
     OPTIMIZER  BFGS
     MAX_ITER  100
     MAX_DR     3.0000000000000001E-03
     &BFGS
     &END BFGS
   &END GEO_OPT
   &MD
     ENSEMBLE  NVT
     STEPS  2000
     TIMESTEP     4.9999999999999994E-01
     STEP_START_VAL  2000
     TIME_START_VAL     9.9999999999998226E+02
     ECONS_START_VAL    -1.1027364005818235E+03
     TEMPERATURE     3.0000000000000000E+02
     &THERMOSTAT
       TYPE  GLE
       REGION  MASSIVE
       &GLE
         NDIM  5
         A_SCALE     1.0000000000000000E+00
         A_LIST     1.8595758612559999E+02    2.7263853498399998E-01    1.1526100454610001E+01   -3.6414578262600003E+01 \
             2.3173375816020001E+02
         A_LIST    -2.7809524712060002E-01    8.5951591808710006E-05    7.2189048017650004E-01   -1.9844539343859999E-01 \
             4.2409257583420001E-01
         A_LIST    -1.4825808131210000E+01   -7.2189048017650004E-01    1.3590902121280000E+00    5.1498896280349999E+00 \
            -9.9949268450990001E+00
         A_LIST    -1.0372189126880000E+01    1.9844539343859999E-01   -5.1498896280349999E+00    2.6661910891169999E+01 \
             1.1507715495310000E+01
         A_LIST     2.1801346360420001E+02   -4.2409257583420001E-01    9.9949268450990001E+00   -1.1507715495310000E+01 \
             3.0958394565589998E+02
         &THERMOSTAT_ENERGY
              -1.6303700366879383E-04
              -1.7437493525820575E-03
              -2.8502181462541510E-03
              -2.4693592650659566E-03
              -1.8274699212608037E-02
               1.8656837309827387E-04
              -7.4097923658048865E-03
              -9.1020625226280244E-04
               9.2701624323120284E-03
               3.9429995008602291E-03
               6.3542784216389370E-03
               2.8602239915866720E-04
              -7.2874157526621897E-03
               6.5312052729789652E-04
               2.9683427805111450E-03
              -9.5708468342137285E-03
               2.7822763219937535E-03
               3.6748753049906677E-04
               4.5593401624544339E-03
               8.6897893829934942E-04
               3.3817910687599891E-04
               9.1319813669398439E-03
              -9.7579228191096556E-03
              -1.0132212320900676E-02
               3.2226949744381256E-03
              -5.5705437827372655E-03
              -1.5355271962380023E-03
              -9.4567188956664033E-04
              -7.2306182914409908E-04
               4.2278354972511310E-03
               1.6606134564408983E-03
              -3.9453950589324761E-03
               1.0539864990994395E-02
              -1.0434126906159640E-03
               1.4792693895662704E-03
               8.2940823349921845E-03
               2.8432494267356672E-03
              -2.8096789110417480E-03
               2.6838188681389502E-03
              -2.2675026051320238E-04
               7.1635615002580907E-03
              -5.8194122500441862E-03
               1.4791968165513082E-03
               4.4811011061265697E-03
               4.9870058158656000E-03
               2.1511868669596042E-03
              -7.5361873391952021E-03
               7.2559283041432286E-04
               5.7390316954860285E-03
              -3.4062870090965068E-04
              -2.4333102791375118E-04
               5.1364425114857008E-03
              -5.3361902373797775E-03
              -6.8035824837436908E-03
              -6.2187173205418512E-03
               1.4181422544613347E-03
              -2.9318321395339934E-03
              -8.9467730543037905E-03
              -1.7011243930209364E-03
               1.7411950433975996E-02
              -1.4732731351395111E-03
              -9.1253646274135573E-03
               1.7646641273402760E-02
              -1.1811545923649880E-02
              -1.6255213180721780E-03
               3.5679173605498516E-03
              -9.8575148717467958E-03
               1.5277306650981854E-02
               1.0168094907472273E-02
              -3.4363445902199103E-03
              -4.7096133896670448E-03
               8.5827787233422811E-03
              -1.5188359344811711E-03
               3.0025745294469785E-03
              -4.3792315478027926E-03
              -2.3143772780163548E-02
               1.5515825188511750E-02
               8.0402190409889821E-05
               5.1655246051764917E-03
              -5.0615959606908935E-03
               9.4294632723789292E-03
              -7.5574232592713845E-03
               2.5844872960354860E-03
              -1.8434564509695892E-03
               3.1298138962257945E-03
               1.1282375336197610E-02
              -3.0998083327469406E-03
              -5.7254390542395821E-03
               1.1415318082610603E-02
              -1.4318239697211941E-02
               1.9869612966284429E-03
              -8.8317772090101068E-03
               2.0856856256778250E-03
              -5.8690855733206102E-03
              -4.0051149191665438E-03
               8.8627055229896865E-03
               1.3588521971338929E-02
               2.4789946340052812E-04
               7.0374848313577761E-03
               3.3509091207947492E-03
              -3.5570785274778734E-03
              -3.1086108412465866E-03
               1.2326191128773506E-03
              -4.7074463835574355E-03
              -1.3932418948760128E-03
               1.4826808763495569E-02
               1.1377037181846300E-02
              -1.9811260008971416E-04
               6.4392253206538869E-03
              -4.4497661491138679E-03
               3.9001460631255115E-03
              -1.7818626772411951E-03
               6.7108986871671382E-03
              -2.9951192375290642E-03
               3.7127254251067463E-03
              -2.3242884950630928E-03
              -5.4979210495721374E-03
               2.6231518771941000E-04
              -4.3299516943883266E-03
               2.7860609933040982E-03
              -2.6538167824666204E-03
               7.4692433001303489E-03
               5.6018293341722038E-03
               4.0439474161491264E-03
              -2.5646316668835574E-03
              -1.2613724070215193E-02
               5.1703403410090923E-03
               5.6580619854811065E-04
              -1.3792550400101465E-03
               5.5397620202918604E-03
               1.2761086247379757E-04
               4.1167496647973190E-03
              -6.0552795109343749E-03
               1.8794655560599805E-03
              -4.3032658044752179E-03
               6.2579743267974263E-03
              -1.0082723659014833E-03
              -2.2890740917730339E-03
               5.3065364822458515E-03
               1.5649684399120485E-03
              -1.5045501587519322E-02
               8.8253270872828016E-03
               1.6928454742520197E-02
              -1.9477561731875193E-02
              -1.5894733707943591E-03
              -2.8936675808857314E-03
               8.7552853446878406E-03
               7.3422345572679375E-04
              -3.0398942794336462E-04
              -6.8516014721570180E-03
              -1.5229318662605174E-02
               6.3990899049376519E-03
               7.4795424159542143E-03
               5.3627156963239860E-03
               7.2642527076526161E-04
              -1.5397178589495963E-03
               4.9539666280204071E-03
              -2.7030658631610745E-03
              -8.9319677565930823E-03
               1.6378426609048691E-03
              -5.0289096452739747E-03
               3.2268165303695846E-03
              -3.3569076452169581E-03
               1.5136643597638512E-03
              -5.5171136197630915E-04
               2.5253444849209470E-02
              -5.8311900242639643E-04
              -2.5873538687594445E-02
              -1.9856205574498398E-03
              -1.6345681917515585E-03
               7.5023598722896477E-03
               2.6507961194835354E-03
               7.9552189018333545E-03
               1.8804948872172570E-03
               6.3674784666511702E-03
               3.9799242516446620E-02
               1.3943085392628462E-02
               1.1326297603285075E-02
              -1.2130526369475569E-02
               1.5171398603432483E-03
              -1.8738724851351249E-03
              -8.9530225752069217E-03
               1.9328040686059672E-02
              -2.7178372660567043E-03
              -2.4795422025003853E-03
              -6.6233288879895898E-04
               1.4713868194354175E-02
               9.1970738869092653E-04
              -7.4534448418212586E-03
               1.7965426568679480E-03
              -5.8527315147151237E-03
               3.5568066837271817E-03
               5.5171807463251397E-03
              -1.7969979074344089E-03
               3.2913824509406618E-03
               9.3345593304323179E-03
              -9.0551211255093644E-03
               5.8883192250030972E-03
              -7.3675679922740982E-03
              -3.8916442560040353E-03
               1.1472918999955003E-02
               2.6449298672651641E-03
              -5.4695614095014481E-04
               8.9600818183193810E-03
              -9.4556210642876091E-03
              -8.5090718772485377E-03
               4.2874958842908208E-03
               8.8505595849269186E-03
              -1.2411810132364823E-02
               1.9824468270290999E-02
              -7.3172661258654971E-03
              -1.3895874048631030E-03
               6.1346927995256520E-03
               3.4248123137491462E-03
              -5.7258243363014546E-03
               3.0803560144730228E-03
              -1.6664861722882229E-02
               1.6022059744074748E-02
              -4.3420413328538379E-03
               3.9667777528640882E-03
              -2.7537054629337803E-04
              -1.7230488437154053E-03
              -1.4595920344776537E-02
               5.3620915189673372E-03
               1.3674093814899731E-02
              -5.3908603958740236E-03
              -3.7349867612394929E-03
               4.3229016658279384E-03
              -3.7061742680427148E-03
               2.0163444349096610E-03
              -6.1830805527725071E-03
              -2.8459524106233588E-03
               1.1154152543834414E-02
              -5.4259036348001787E-03
               1.5049639945185975E-03
              -1.0114087049914355E-02
               9.3310937424195524E-04
               2.8997483481466736E-03
              -8.5558285919347117E-04
              -2.6510892760887118E-04
               8.3625684980976440E-04
               1.0265601263716787E-02
               5.3512079018111130E-03
              -3.4532275225131006E-03
               2.1994168727982048E-03
               6.6101553521985806E-04
               6.9227518635793322E-04
               4.7719464914625217E-04
              -4.9074497694677954E-03
              -9.3321239088727474E-03
               1.0470898114909821E-02
              -1.5317388312793539E-03
              -9.0687319101099787E-03
              -7.5332617956900922E-03
               7.5370843965500388E-03
              -6.5129329424014077E-03
              -3.2070475278037692E-03
               6.6025154600549427E-03
              -4.6068610590889172E-03
              -1.0750929486172233E-03
               6.5563490261124641E-03
               8.2777796082896433E-03
              -4.3635219632638395E-04
              -9.6456648059610982E-04
              -8.6688430154197374E-04
              -3.5988677775400375E-03
               1.1459457111197141E-03
               2.9063497058919351E-03
               4.5297370880230457E-04
               1.4134252484022283E-03
               4.6117329825907166E-03
              -1.4521569458295538E-02
               1.0896164000116683E-02
               6.8741377678047536E-03
               3.4099381588983523E-04
              -2.5664047729694532E-03
              -1.1005495561707039E-02
               1.2780104677346285E-02
               2.7288105304208726E-04
               1.3639582375831117E-02
              -1.3153206662116921E-02
              -8.2570525472672497E-03
               2.1142168779518401E-03
               3.4545106062805384E-03
              -7.9133315196789949E-04
              -1.3688237868775140E-03
              -1.6860517286191655E-03
              -4.8410999676985267E-04
              -8.7390914409280606E-03
               2.1301085907292454E-03
               2.2523961683085510E-02
               5.2173241424485076E-03
              -5.9693024715447894E-03
              -7.4974461893232835E-04
              -8.0713425217469794E-05
              -4.9613936545531952E-03
              -5.1878528405270912E-03
               1.7245041023612479E-02
              -4.8771219586692420E-03
              -3.1140645241794118E-03
               3.0637347797403363E-03
               2.4853179303669574E-04
               4.6931563780744038E-03
               2.2094420858062489E-02
               3.2309989332699449E-03
              -1.6447547211679330E-02
              -7.5056623914611185E-03
              -1.1268892632682870E-02
               1.2609286186038715E-02
               1.1664231676616973E-02
               2.0888016097916832E-03
              -6.1121795122470813E-03
               3.2282495807199186E-03
               5.1398503894093273E-04
              -1.3081245719489373E-03
              -1.8653587226770412E-03
              -1.1369970949553620E-02
               1.9625901168087104E-03
              -1.3571893380165533E-02
              -5.7864394803733192E-03
               5.5494340500901471E-03
               6.0189048100608390E-03
               4.2112479926022630E-03
               8.8251561051110872E-03
              -8.0296747759326069E-03
               1.3253468009187603E-02
               7.2801803605808445E-03
               2.8634261773344285E-03
               1.5138743927600655E-04
               7.1986603623588044E-03
              -1.0002099459648884E-02
               3.7334671287926140E-03
               1.4641450918726939E-03
              -5.0275260835910898E-03
               1.2209621931502344E-02
              -7.9363130433701742E-03
               1.9826574862087027E-03
               5.2199767951890087E-03
               2.2663329889217732E-04
              -3.8923455117445853E-03
              -3.9057165821265206E-03
               1.0172274584244461E-03
               4.6577944683256073E-03
               7.0147988314092917E-04
               5.0594850808824516E-03
               2.6698694251357883E-04
               6.0169526335384221E-03
              -1.1902314180907488E-02
               1.2510895464823348E-02
              -2.1566725520320972E-03
              -4.2479594338040438E-03
               3.6101162049888007E-03
              -6.9385501039135036E-03
               8.4383780360115079E-03
              -2.0160314270797230E-04
              -1.4544299713813600E-03
               9.5658728452345434E-04
              -7.3518749827551234E-03
              -1.6173727884303955E-02
               7.3784164198322207E-03
               1.4529924650862377E-03
              -7.3181980085722832E-03
               2.1149483739915608E-02
              -6.8761459739816058E-04
              -1.7582556402953276E-03
               2.0959690001268881E-03
               1.5960221233191817E-02
               1.8290020641664004E-03
              -9.8886219081369357E-03
              -2.5712383889725742E-03
               1.4310374122747621E-03
               6.7236028077783420E-03
               1.1123940129276995E-03
              -3.8653252774390147E-03
              -9.3416612261338998E-04
               5.9977677451674817E-03
              -1.0339572196377916E-02
              -1.5611559065777519E-02
               1.8114858166544889E-03
               8.1807253847844819E-03
               9.2169718940997864E-03
               6.1465875395275435E-03
               5.1133624230728465E-03
               1.4128702271695987E-02
              -1.1260847436780370E-02
               4.8500185370975342E-03
               3.5776951889044469E-03
               2.9545478728752491E-05
               5.1580917654051508E-03
               5.3189368948492475E-04
              -7.1509127129167002E-03
               5.7542546897581060E-03
               1.6687596834723188E-03
              -7.9734799486551339E-03
               1.6007356632477987E-02
              -3.7710751401435942E-03
               1.2648689517073283E-03
              -7.3301244814799084E-03
               7.9562185110592550E-03
               1.8460350997849859E-04
               5.5448381870590938E-03
               3.0046873488916723E-03
               3.0985182087709100E-03
              -8.1263502403553286E-03
              -9.9245883865358461E-04
              -5.4918322313055670E-03
              -1.9830011066065364E-03
               3.6854008719083881E-03
              -1.2658424354529705E-04
               5.5812050825455985E-03
               2.7801792205995148E-04
              -8.8400461783998113E-03
              -8.5873765383754439E-03
              -6.3230195914421266E-04
               4.6859170798029927E-03
               6.5549696506973492E-03
               3.1668213300626654E-03
               2.1728247594468039E-03
              -2.5214603256610481E-03
               2.1753305876514124E-03
              -6.2316986690089879E-03
               7.0783612555794274E-03
               1.6910093813076340E-03
              -4.1802034730866987E-03
               1.2693341099499980E-02
              -8.8327499670073292E-03
              -3.0364938942234443E-03
              -3.0258536320354732E-03
              -1.8025671310983511E-03
               9.7260210962462896E-04
              -2.7965673768921844E-03
              -8.3210465799653712E-03
              -7.8415029256826800E-03
               5.6094234719083471E-03
               1.0454829552614354E-02
               3.0435003709907366E-03
              -5.7682244536918044E-03
               1.7651649358491109E-03
              -1.0880924430858807E-02
              -6.2937801097047797E-03
               9.0221024028164058E-03
              -2.1690850504369401E-03
              -5.6586751136614901E-03
               1.0532450459476343E-02
               4.8048657989693492E-03
               9.2892608574155038E-03
               2.8305101556063265E-03
               1.3545124015477718E-02
               5.4828382392077823E-03
              -7.8717030046758455E-03
              -5.5394069552845331E-03
              -1.1297748532540588E-02
               3.1234629063651952E-03
               8.4492896073073249E-04
               5.5134943012362554E-03
               5.0651106799176127E-04
              -1.4807055111751094E-02
              -4.0257481870928143E-03
              -4.7277747703326142E-03
               4.8996897997988166E-04
               1.2218458809291096E-02
               2.1318419570783209E-03
               9.3903957953004431E-04
               1.2889614977737184E-02
               8.8262203693185428E-04
               5.1000739573555526E-03
              -1.0689460822738452E-02
               3.2459446679613557E-03
               6.7839275951751769E-03
              -9.8221233214717627E-03
               3.7012824800322507E-03
              -2.8127338545729718E-03
               3.9230583484460057E-03
               2.7390965278530203E-03
               1.4250210095253164E-03
               1.4235250223580857E-02
               1.0170641014592844E-03
              -3.0687998352616989E-03
               3.3361993446801609E-03
              -5.8282106906446208E-03
              -1.3824027696954376E-03
              -2.9020881090966151E-03
               1.2856426824138980E-03
               7.5579886337857685E-03
              -6.2350881233914314E-03
              -3.3454166832407174E-03
              -5.9635437011664348E-03
               2.3852118615631255E-03
               2.4820077895573662E-03
              -1.9118735315464241E-04
               2.6975303481352290E-03
               7.4478744921363214E-03
               1.8566750079923474E-03
              -7.0004772827135086E-03
               8.0825825559179617E-04
               4.7514189390137828E-03
               3.1795899092821930E-03
              -1.5051267811653068E-03
              -6.5309377003556460E-04
               9.2842575401122073E-03
              -1.2202155768353447E-03
               7.0062258341333809E-03
              -6.3143260193583789E-03
               1.0622202970038352E-02
               1.0856342036814300E-03
              -6.9795060956411442E-03
              -3.0698753863569218E-03
              -1.5742008760591523E-03
               6.0432211229206325E-03
              -6.4189505195048836E-04
              -1.1487887676215737E-02
               8.0402017062982233E-03
               6.8548736538694499E-03
              -6.0554254222670066E-03
               8.1839460135630232E-03
              -2.0182200826540424E-02
              -1.2004381865239985E-02
               6.5713858370600974E-03
               4.5518080470256248E-03
               6.9520820689441785E-03
              -1.5940869950559856E-02
              -2.6166665597113876E-05
               1.0316584769087308E-02
              -2.2897966954893968E-04
               5.6789181326797923E-03
               1.9374016035562940E-03
              -1.2244718556856575E-03
              -3.8836880923493614E-03
              -3.3366573410814122E-04
               4.2333194836442127E-04
               1.3455358694268853E-02
               1.8967201328481602E-03
              -1.4021078242159939E-02
              -4.4693443979923891E-03
               1.5380000281716929E-04
               3.1466815887520694E-03
              -2.4948408862775994E-03
              -4.1268590931772091E-03
              -5.7610899583382946E-03
               1.2169647065588323E-02
               5.0543417152280395E-03
              -1.5102507340868268E-03
              -2.7552471100222684E-03
              -1.6938925778241078E-03
               2.4449395451765473E-03
              -4.2676705265682858E-03
               9.5390310958517622E-03
              -6.8875741450646413E-03
               5.1572174306854695E-03
               5.9463436546112721E-03
              -3.1683303010299492E-03
              -3.5776918942817446E-03
              -2.2637159320058123E-03
              -1.6915850312132594E-03
              -2.7352261575394033E-03
               7.7910912337677534E-03
              -3.9466385626023412E-03
              -1.5082394388644560E-03
               7.8053710783136925E-03
               1.7886011121864501E-03
              -9.6192725006909716E-04
               9.5847179804190025E-03
              -2.0863266762162426E-03
              -2.5838969689736088E-03
              -6.3786478176208988E-04
               1.3377307868560983E-02
              -7.4362943806077445E-03
              -8.4202207038179457E-03
               1.8028905393815680E-03
              -3.2687847114561408E-03
              -4.3870989107706671E-03
              -4.0746144624060161E-03
              -5.4638956554129044E-03
              -8.3676038716268934E-03
               5.4423140334992600E-03
               1.1407558787325746E-02
               1.6223751197263554E-02
               2.8973725749302940E-03
              -5.8319997485378845E-03
         &END THERMOSTAT_ENERGY
         &RNG_INIT
Wiener process for Thermostat # 1        1 F T T  -4.3866331554119464E-01        3463026290.0         996283881.0        3077134961.0        1575188103.0         352198642.0        1255594993.0             12345.0             12345.0             12345.0             12345.0             12345.0             12345.0             12345.0             12345.0             12345.0             12345.0             12345.0             12345.0
Wiener process for Thermostat # 2        1 F T T   6.1664168869435698E-01         581397078.0        3867423482.0         327967633.0        1486938113.0          26429212.0        4093174459.0        3692455944.0        1366884236.0        2968912127.0         335948734.0        4161675175.0         475798818.0        3692455944.0        1366884236.0        2968912127.0         335948734.0        4161675175.0         475798818.0
Wiener process for Thermostat # 3        1 F T T   2.0518696979926636E+00        1062843694.0        3278483557.0        2630284801.0         342499437.0         508306288.0         570022504.0        1015873554.0        1310354410.0        2249465273.0         994084013.0        2912484720.0        3876682925.0        1015873554.0        1310354410.0        2249465273.0         994084013.0        2912484720.0        3876682925.0
Wiener process for Thermostat # 4        1 F T T   8.6483655468840070E-01         858988242.0         878260951.0        1341305949.0        1687735708.0        1261279903.0        1615458589.0        2338701263.0        1119171942.0        2570676563.0         317077452.0        3194180850.0         618832124.0        2338701263.0        1119171942.0        2570676563.0         317077452.0        3194180850.0         618832124.0
Wiener process for Thermostat # 5        1 F T T  -7.2623034709222295E-02        3503246388.0        3640749438.0          80160185.0        4050541932.0        1809135917.0         826251710.0        1597262096.0        3906379055.0        3312112953.0        1016013135.0        4099474108.0         275305423.0        1597262096.0        3906379055.0        3312112953.0        1016013135.0        4099474108.0         275305423.0
Wiener process for Thermostat # 6        1 F T T   2.6094790259997280E+00        1648662560.0         298744963.0         276080774.0        3452610735.0        2129471280.0        4132861437.0          97147054.0        3131372450.0         829345164.0        3691032523.0        3006063034.0        4259826321.0          97147054.0        3131372450.0         829345164.0        3691032523.0        3006063034.0        4259826321.0
Wiener process for Thermostat # 7        1 F T T   1.3118545096244869E+00        4025695046.0        1027992126.0        3217973651.0        2155997853.0        1780084567.0        1907814450.0         796079799.0        2105258207.0         955365076.0        2923159030.0        4116632677.0        3067683584.0         796079799.0        2105258207.0         955365076.0        2923159030.0        4116632677.0        3067683584.0
Wiener process for Thermostat # 8        1 F T T   7.1524753302764935E-02        2631328646.0          66904958.0        3191287979.0        3452779318.0        2048731614.0        3759050068.0        3281794178.0        2616230133.0        1457051261.0        2762791137.0        2480527362.0        2282316169.0        3281794178.0        2616230133.0        1457051261.0        2762791137.0        2480527362.0        2282316169.0
Wiener process for Thermostat # 9        1 F T T  -1.0980465140389938E-01        1977246253.0        1903248984.0        3508262652.0        2466127224.0         300284070.0         767034957.0        3777646647.0        1837464056.0        4204654757.0         664239048.0        4190510072.0        2959195122.0        3777646647.0        1837464056.0        4204654757.0         664239048.0        4190510072.0        2959195122.0
Wiener process for Thermostat # 10       1 F T T   1.9081094228418396E+00         405211316.0        3215252316.0        3029076279.0        3899943421.0         886526099.0         586515832.0        4215590817.0        3862461878.0        1087200967.0        1544910132.0         936383720.0        1611370123.0        4215590817.0        3862461878.0        1087200967.0        1544910132.0         936383720.0        1611370123.0
Wiener process for Thermostat # 11       1 F T T  -5.3344054384789541E-01        3450000619.0        1059116059.0        3916567347.0         635813254.0        3901690603.0        3696418470.0        1683636369.0         362165168.0         814316280.0         869382050.0         980203903.0        2062101717.0        1683636369.0         362165168.0         814316280.0         869382050.0         980203903.0        2062101717.0
Wiener process for Thermostat # 12       1 F T T   8.9448207812820613E-01        1696219248.0        1783691089.0        1685873716.0        1285524479.0        2726140602.0        4269630803.0         272317999.0         166758548.0         310112982.0         201045826.0        1680231254.0         118290799.0         272317999.0         166758548.0         310112982.0         201045826.0        1680231254.0         118290799.0
Wiener process for Thermostat # 13       1 F T T  -1.0297203341400047E+00        4019568919.0        3484227797.0         947541978.0        4224885921.0        2127446270.0         502669027.0        2245755202.0        1652682525.0        2865544364.0         721509566.0         209733568.0         592362218.0        2245755202.0        1652682525.0        2865544364.0         721509566.0         209733568.0         592362218.0