 # Version information for this restart file 
 # current date 2022-11-29 19:32:58.248
 # current working dir /home/kc5054/CHEM2671/comp-lab-class/Week12/Runs/Proton
 # Program compiled at                              Sat Dec 12 18:27:15 EST 2020
 # Program compiled on                                         cs001.nyu.cluster
 # Program compiled for                                                nyu-intel
 # Source code revision number                                       git:8c64c6e
 &GLOBAL
   PRINT_LEVEL  LOW
   PROJECT_NAME proton_aimd_1ns_every0.5fs
   RUN_TYPE  MD
   WALLTIME 21600
 &END GLOBAL
 &MOTION
   &GEO_OPT
     OPTIMIZER  BFGS
     MAX_ITER  100
     MAX_DR     3.0000000000000001E-03
     &BFGS
     &END BFGS
   &END GEO_OPT
   &MD
     ENSEMBLE  NVT
     STEPS  2000
     TIMESTEP     4.9999999999999994E-01
     STEP_START_VAL  1500
     TIME_START_VAL     7.5000000000000762E+02
     ECONS_START_VAL    -1.1027364005818235E+03
     TEMPERATURE     3.0000000000000000E+02
     &THERMOSTAT
       TYPE  GLE
       REGION  MASSIVE
       &GLE
         NDIM  5
         A_SCALE     1.0000000000000000E+00
         A_LIST     1.8595758612559999E+02    2.7263853498399998E-01    1.1526100454610001E+01   -3.6414578262600003E+01 \
             2.3173375816020001E+02
         A_LIST    -2.7809524712060002E-01    8.5951591808710006E-05    7.2189048017650004E-01   -1.9844539343859999E-01 \
             4.2409257583420001E-01
         A_LIST    -1.4825808131210000E+01   -7.2189048017650004E-01    1.3590902121280000E+00    5.1498896280349999E+00 \
            -9.9949268450990001E+00
         A_LIST    -1.0372189126880000E+01    1.9844539343859999E-01   -5.1498896280349999E+00    2.6661910891169999E+01 \
             1.1507715495310000E+01
         A_LIST     2.1801346360420001E+02   -4.2409257583420001E-01    9.9949268450990001E+00   -1.1507715495310000E+01 \
             3.0958394565589998E+02
         &THERMOSTAT_ENERGY
               5.1774353260393749E-04
              -2.8661771378823211E-03
               4.9109427511046465E-04
               1.4608980796702192E-03
              -1.8033404580297698E-02
               1.1609369043810026E-03
              -4.7005151655433479E-03
              -1.5661425456122090E-03
               6.9944776819107716E-03
               4.7405701631042241E-03
               6.4037806576546143E-03
              -5.0797620676233252E-03
               9.8255348808301470E-07
              -8.1930661143276382E-03
               1.0177505308486330E-02
              -5.7449931928210043E-03
              -1.1383586097867939E-04
              -2.0645678619100004E-04
               3.6082020865182297E-03
               1.0731610623831249E-03
               1.5548348549918832E-03
               4.1286473595500530E-03
              -4.5741802244397582E-03
              -2.9255640609158568E-03
              -9.4283478462865126E-04
              -7.6915416663091759E-03
               7.1470356266053027E-04
               1.9165200766801433E-03
               1.0046991331985322E-03
               3.7852441028956669E-03
              -4.0193094167820581E-03
              -1.0840172335655584E-03
               9.5783893730752266E-03
               2.6369012147263349E-03
              -1.5369085829853383E-02
               1.6183179714806928E-02
              -5.8501881353203002E-04
              -2.7106432542879340E-03
               5.7039250867402377E-03
               1.0015531115359312E-03
               5.0601072932247321E-03
              -9.1623230786563533E-04
               5.4905840772339169E-03
               1.3668363221922678E-03
               2.2564638810931210E-03
               5.8276308625191580E-04
              -2.7863132773761176E-03
               8.4106257871813315E-04
               6.1798851729882810E-04
               3.8949190551933245E-03
              -6.9443118023188076E-04
              -5.7785656265602465E-05
              -6.4201431537696330E-03
              -4.4401114946863848E-03
              -6.0129227128868767E-03
               1.6424835914208961E-03
              -6.7563716384698089E-04
              -2.7671493569697710E-03
              -2.2880723363261215E-04
               9.2991146739818085E-03
              -8.5828412727116249E-03
              -6.9078613686638637E-03
               1.6706412510579471E-02
              -8.6111454748169416E-03
              -3.0445006212031656E-03
               3.6034328342022894E-03
              -8.5808716504684312E-03
               1.5977140179628094E-02
               7.8582808426976344E-03
               4.1200913525583352E-03
              -1.0594538611635215E-02
               5.3959823795054918E-03
              -4.6875190957442202E-04
              -3.5793789521673631E-04
              -2.0877345221628752E-04
              -1.5704449539964339E-02
               9.6290220134086536E-03
               3.8771179390059750E-04
               4.1609357145713155E-03
              -4.3253559601364013E-03
               9.8416543939907168E-03
              -2.6741386562033538E-03
               1.6731733624105699E-03
              -1.0359481678226725E-03
               1.1761576276547237E-03
               6.1230943279211424E-03
              -5.0859450744409930E-03
               2.5117919160213558E-03
               7.3212605347259558E-03
              -1.0515302464029746E-02
               5.8902642652541252E-03
              -8.3405564110606289E-03
               1.4381502863343638E-03
              -7.7096953575593661E-04
              -6.3390366019278862E-03
               9.8168137654963787E-03
               7.9212283322386938E-03
              -1.4742195395549720E-03
               8.1713087162373008E-03
               6.8384723754875421E-03
              -6.1785827956166396E-03
               7.7745454429676447E-05
               1.5907177056622031E-03
               9.9634048934843121E-04
              -7.5657663824435038E-03
               8.6870982671325946E-03
               1.0294311651933031E-02
              -9.6274545587494216E-04
               8.5052038119562117E-03
              -2.2907502120842965E-04
              -6.2752516106281725E-04
              -7.9393429287730379E-03
               1.1205396854317264E-02
               2.7893217423106708E-03
               3.3133594805829208E-03
               2.1098784765328019E-04
              -4.9985635504013141E-03
               3.2938466596002282E-03
              -1.8657012239455216E-03
               2.3832958305283785E-05
              -3.0974817456904456E-03
               6.9056581411767954E-03
               7.8702083334835915E-03
               2.8742639329955850E-03
               1.4746148500984174E-03
              -1.0681356888601235E-02
               9.3037075767426064E-03
               1.7600540031015180E-03
               8.4970489868772705E-04
              -3.0155052087853982E-03
              -2.4090341050915648E-03
               5.9613068042531220E-03
              -3.4736371694854325E-03
               1.6527328462344485E-03
              -3.2373239997734380E-04
               5.3609654629078714E-03
              -2.0102335880786606E-03
               8.2494194343853318E-04
               2.4067534459382383E-03
              -4.4247741687402866E-04
              -7.7794504028370877E-03
               5.7277803528900054E-03
               1.4932914879412729E-02
              -1.6333974425697239E-02
              -1.3688914289450127E-03
               5.3340898719520641E-04
               8.3807905410198599E-03
              -6.6888483090422144E-03
              -1.2985684374374425E-03
              -1.0026540780915669E-04
              -1.4384743749143229E-02
               4.2165003120389075E-03
               6.8769783825500114E-03
               2.5653238224849582E-03
              -2.5520947001268107E-05
               2.6543904150241552E-03
               6.0672388593399846E-03
              -7.6367979796117674E-03
              -3.4838337414959258E-03
              -1.9310029550610199E-05
               2.7481729225291769E-03
              -2.1189136026570879E-03
              -3.4097400884854634E-03
               1.9559886144254908E-04
               7.4759947270184853E-04
               2.0002747485399524E-02
              -2.0935299894311011E-04
              -1.5514348199910261E-02
              -4.0963656850146477E-03
               2.9469435485643602E-03
               4.5895565833520132E-03
               9.9355379328137233E-04
               5.7280827047005772E-03
               3.2773837075552909E-03
               5.7105758000747372E-04
               4.2865580278767808E-02
               1.6116584854781787E-02
               1.2709941441995531E-02
              -7.6211452686792197E-03
               3.0206812810084928E-03
              -1.5850304903339317E-03
              -9.9744574104823399E-03
               1.8615408981062696E-02
              -4.1961645037174884E-03
               1.3437542836996634E-04
              -5.1662060857772790E-04
               8.4256494774871613E-03
               2.2654633102650078E-03
              -4.7229930207119374E-03
               3.6352261367142338E-03
              -3.1695548199610199E-03
               2.3074059697562287E-03
               3.5039627727217531E-03
              -1.9141298933395712E-03
               2.8382313766708799E-03
               6.7339521354265403E-03
              -7.0662397477265536E-03
               2.8639834836915981E-03
               9.6084069344177809E-04
              -3.4731042313858708E-03
               3.1916250647291062E-03
               2.1363017348745685E-03
               1.2236779205098249E-03
               7.5772348611222520E-03
              -3.8305333727921627E-03
              -4.2106343225323259E-03
               2.9308276559008217E-04
               2.1108169433960763E-03
              -9.4825603638986743E-03
               1.7668965994156738E-02
              -9.9168579357456037E-03
               2.6808540743651014E-04
               5.5157515766137196E-03
               7.8043862689950588E-04
              -7.4000075027548500E-03
               6.7311904344608889E-03
              -1.8229877890530086E-02
               1.6526066361439929E-02
               6.3376971230524864E-03
               4.2579105257699789E-03
               2.2429733599719026E-04
              -3.5067308538099268E-03
              -1.2387763208147662E-02
               1.0539718188398444E-03
               5.0552401972687611E-03
              -2.9878643452889608E-03
              -2.4551871819313616E-03
               6.2581575052406795E-03
              -2.6201875445111874E-03
               2.3952688597895600E-04
              -4.6452619656475362E-03
              -1.9704104521161897E-04
               8.7245878546831097E-03
              -2.9150363009315386E-03
              -1.5682292121125545E-03
              -1.1315759889699392E-02
               1.3404521451001669E-03
               3.9833155237833304E-03
              -2.4861906022462400E-03
               6.8467619591495467E-04
               1.2933851657386094E-03
               9.5574623228825307E-03
               5.3883849249502964E-03
              -4.9276951200167033E-03
               6.5423737085324579E-04
               7.9258768790965619E-04
              -5.6750223853132935E-04
               2.8397607043279399E-03
              -6.5436344178957627E-03
              -2.0420808379581837E-03
               4.2826671003197625E-03
              -2.9147263573108448E-03
              -2.7760929369857711E-03
              -1.1340020070271850E-02
               9.5913086195859795E-03
              -2.8501843963158937E-03
              -3.0277818609421060E-03
               3.9779733153882321E-03
              -6.0943480516606422E-03
              -1.4053054588888898E-04
               1.1115733412402537E-02
               3.2209049166456128E-03
               7.0786115925475400E-03
              -3.1752209356136914E-04
              -3.8329204059218249E-03
              -2.7856310250989466E-03
              -5.2657954330594646E-04
              -9.0103874613948055E-04
               1.0641726674606501E-03
               3.6568671904820670E-03
               1.8358912382441493E-03
              -1.0330195160529302E-02
               1.3620200966102983E-03
               5.9355965510392242E-03
              -2.0456185953452335E-03
              -1.3782024051348979E-03
              -1.3589266052248234E-02
               1.1092433454587197E-02
               4.5942005248335816E-03
               5.1989046193764103E-03
              -5.8000301011307733E-03
              -4.7778376559507781E-03
               5.1992798883958146E-03
               4.8705646619225697E-03
               3.8873218118564185E-03
              -4.2895083345671742E-04
              -1.0120072231033757E-02
              -2.7792543012143383E-03
              -1.6218519478835354E-02
               3.7646495528340183E-03
               2.0977290601575924E-02
               2.0764086182108905E-03
              -6.0551212476321068E-03
              -4.3537305907551845E-03
               3.0160627954603082E-03
              -4.3050794418255343E-04
              -5.2763044466852043E-03
               1.2201975463047101E-02
               8.8505730709565670E-04
              -1.9160639853454946E-03
               1.5530974862906378E-03
              -3.2598235022199256E-03
               4.3203334221051841E-03
               1.9648792380472093E-02
               3.3461620071146294E-03
              -1.0590365327234837E-02
              -8.1524137233197382E-03
              -1.1217573889557866E-02
               1.3530849543368337E-02
               1.1018532900519117E-02
               6.5903514168726737E-04
              -4.0549728791239477E-03
               7.6065211143999650E-03
              -2.3167591756136285E-03
              -4.6535823200674412E-03
              -2.3587602616819796E-03
              -1.1573300712354581E-02
              -9.9568904584527881E-05
              -1.1636585906401486E-02
              -4.3563979509876234E-03
               9.4060823681847683E-04
              -5.2429591934027792E-03
               1.6857510287709731E-03
               5.8475893633016156E-03
              -6.4703036874734490E-03
               1.0408631622624136E-02
               9.1375486498326795E-03
              -1.9719137834696043E-03
               9.7539295616351105E-04
               3.8963197421855696E-03
              -6.7702667201737302E-03
               5.5063202785028366E-03
               2.3732449253609338E-03
              -2.2485859712443887E-03
               3.5176683097243354E-03
              -2.9728764641043823E-03
               3.9304556974965252E-03
               5.3429724693085144E-03
              -1.1542219877925474E-03
               3.5780327532699131E-03
              -4.3659215383491943E-03
              -5.3769594773023901E-03
               2.0756959415251372E-03
               4.8992019743749711E-03
               9.3190808412618106E-03
               3.0690725868270192E-03
               5.0209667271943004E-03
              -8.5178698053761347E-03
               1.1531949755132673E-02
              -4.2240652877139609E-04
              -9.4845286208698875E-03
               5.2983731630870850E-03
              -1.2549940383147695E-02
               1.2830637613219821E-03
               1.3097443816264139E-03
              -1.8653618820169257E-03
              -7.9529342277787486E-04
              -7.9528939127075961E-03
              -5.0877176899336686E-03
              -8.2753845608816989E-04
              -1.8613289888932372E-03
              -1.1316679970334895E-03
               1.3083663477404178E-02
               4.2944246494451953E-03
              -6.2487499325577017E-03
               2.2973036498889089E-03
               1.8178452403903797E-02
              -1.6496822596494469E-03
              -1.6782062345914669E-02
              -4.6417254367691150E-03
               2.1854385347677150E-03
               1.3685364889000709E-03
              -5.1779954789169945E-04
              -2.4051132019004833E-03
              -2.5095331922434377E-03
               4.8459493287592321E-03
              -1.6057862905637640E-02
              -1.1504305263701267E-02
               3.4866590620630700E-03
               1.0950957418587476E-02
               6.3682068436233192E-03
               7.0572293846202054E-03
               7.5829504091783793E-03
               1.3540556611909582E-02
              -1.6586164467954301E-02
               3.9114121136501036E-03
               6.7808470356733709E-03
               6.6496005152401096E-03
               5.9950023116104060E-03
              -1.6196389974477970E-03
              -3.9415333446697455E-03
               4.8463956926356163E-03
              -3.8544762691434555E-04
              -4.6265400129406192E-03
               1.1240068809186888E-02
              -5.2405186244985410E-03
              -1.8647726179851069E-03
               1.1830743564118275E-04
               3.3345601484502784E-03
               1.5028766620503475E-04
              -2.3727111563457328E-03
               5.9188526609951159E-03
              -3.9956691467130240E-03
              -5.6230025894681082E-03
              -1.1675684496738480E-03
               1.9983516762880696E-03
              -2.6472895962324954E-03
              -1.8758277412934032E-03
              -1.2287510112476126E-03
               6.4373939880621647E-03
              -2.7464184087921547E-03
              -7.7022856603305139E-03
              -4.9416081053263450E-03
              -4.4539504123441336E-03
               3.9277328683733010E-03
               5.4939372268245357E-03
               4.6321770054386412E-03
               4.0686107167569752E-03
              -1.1725088781632718E-03
               4.8550678848476725E-04
              -4.4252001898344639E-03
               1.3231614120358002E-03
               7.3887515490219334E-04
              -2.3594377023705136E-03
               1.0796406419306558E-02
              -3.3260964106075950E-03
               3.1022867210284879E-03
              -3.5568570474977909E-03
              -7.3325975718637436E-04
               1.9424306720889585E-03
              -1.7453915230247594E-03
              -6.5489937254932969E-03
              -1.0467838595798354E-02
               5.9735723394245214E-03
               7.9294539256503285E-03
               5.1375376118297242E-03
              -5.5051809913024561E-03
               1.0319081211510107E-03
              -4.9563689224545720E-03
               2.1906831021875487E-04
               6.9740214989156479E-03
               1.2096266178384478E-04
              -2.0019044310922714E-03
               8.3473005158450839E-03
               1.5935269588873945E-03
               6.3591382990115068E-03
               8.4434723723324241E-03
               9.7330918212082309E-03
               3.0712692861451021E-03
              -1.4591592395571795E-02
              -3.4243557306802520E-03
              -5.3174179614489756E-03
               1.9300398931605574E-03
               3.2622164680968824E-04
               1.5775275875962130E-03
              -6.8519366771233109E-03
              -1.3893710193695261E-02
              -3.0246270735277934E-03
              -1.7278497423218273E-03
               3.2983035203315407E-03
               1.4387661532678406E-02
               1.9480066149680797E-03
              -1.1056790587358170E-03
               8.0019935528424513E-03
               8.6066161822207100E-03
               1.9929859701547999E-03
              -1.0643796539375984E-02
              -1.6717686795010755E-03
               8.5966411373689100E-03
              -5.6949252509987201E-03
              -7.5927244395264544E-05
              -1.0839912716705880E-04
               2.5433669389975243E-03
               3.0578060313653354E-03
               1.4245874896115099E-03
               5.4719640262782020E-03
               2.6048639335059221E-03
              -2.0810230668865952E-03
               6.4237787575246606E-04
               5.4939224615390564E-04
               1.0443944841915285E-04
              -4.3813277568844457E-03
               2.3279307707127698E-03
               7.9124739318506016E-03
              -3.5921396341940127E-04
              -8.4231718150267431E-04
              -5.8843633383082201E-03
              -1.6249127044532543E-03
               1.8934341499016035E-03
              -8.1442766040036227E-04
               1.3730777470052340E-03
               6.7057048380439873E-03
               1.0643774683615805E-03
              -6.9167326712713077E-03
              -1.4337152403986024E-03
               1.5238057861665490E-03
              -4.7137105148237880E-04
               1.2281446373281746E-03
               1.7319059434851027E-03
               5.3211548448262817E-03
               2.5220635615473687E-03
               4.6876237072166742E-03
              -6.4953311514779379E-03
               1.0379755002348258E-02
              -1.8035408429665234E-03
              -5.1049592117369310E-03
              -7.2634956112443043E-03
              -2.4526733153913178E-05
               7.4326833031292706E-03
               2.3117998430044677E-03
              -5.3710825758871358E-03
               5.3739117181017988E-03
               2.9709232680413256E-03
              -1.2424639802820138E-02
               1.4718699766941779E-02
              -1.9046181381555487E-02
              -1.0390978480229088E-02
               4.0877008796982618E-03
               6.1705431477562245E-03
               4.0290219599416963E-03
              -1.8088022720306383E-02
               4.0644850078966187E-03
               6.1817099944326010E-03
              -3.7519534856548741E-03
              -1.8615730773172464E-03
               2.1196056364344252E-03
              -1.1109296504803929E-03
              -1.8312697629858082E-03
               3.3569381111548405E-04
               3.3664603265435786E-03
               7.9439151731650389E-03
               3.5984253610321709E-03
              -9.9291803188425922E-03
              -7.9211500210926294E-03
              -2.2858664394274611E-03
               1.2197261874905578E-03
              -7.0679829964290545E-04
              -1.2832537629273147E-03
              -6.0080231176238633E-03
               1.0809206127516619E-02
               3.5270959957863094E-03
              -4.3820782639171800E-03
              -2.4782197577165035E-03
               2.7693516834249839E-03
               2.4229395975128706E-03
               1.1830178500109670E-03
               6.1463166659730447E-03
              -3.3328210129140510E-03
               6.0163891651288538E-03
               8.4292989884367456E-03
              -7.2474133564018207E-03
              -6.1980664573600009E-03
              -1.5583069731272443E-03
              -3.8266245642754964E-03
              -1.8932255796330418E-04
               4.8065560204775233E-03
               2.5832808291982191E-03
              -6.5243461915016725E-03
               1.0222337322971573E-02
              -5.2024830051479779E-04
               2.2994134786235429E-03
               8.3685820353944576E-03
              -2.1109603556185691E-03
              -2.5971225184957991E-03
              -1.2269942583285085E-03
               1.3576594027855327E-02
              -3.2367781925019177E-03
              -4.4524669154741145E-03
               8.0640212849053573E-03
              -5.5052048923370372E-03
              -1.8505863118275100E-03
              -6.8821181753213716E-03
              -1.6748595091822900E-03
              -1.1018216706731863E-02
               9.2667757644656120E-03
               1.3000642976250449E-03
               1.1727163201772396E-02
               4.8982492728474551E-03
              -6.6879729183009001E-03
         &END THERMOSTAT_ENERGY
         &RNG_INIT
Wiener process for Thermostat # 1        1 F T T   1.0570193072987602E-01        2554248455.0        3733268398.0        2096963647.0         915983833.0        1292997779.0         989563289.0             12345.0             12345.0             12345.0             12345.0             12345.0             12345.0             12345.0             12345.0             12345.0             12345.0             12345.0             12345.0
Wiener process for Thermostat # 2        1 F T T  -5.0729818522276993E-01         187792199.0        1332764939.0        1272087322.0         282682701.0         988697858.0        4086000388.0        3692455944.0        1366884236.0        2968912127.0         335948734.0        4161675175.0         475798818.0        3692455944.0        1366884236.0        2968912127.0         335948734.0        4161675175.0         475798818.0
Wiener process for Thermostat # 3        1 F T T   8.9774137220556466E-02        3755061031.0        1753083868.0        1351179932.0         343881147.0        3312142877.0        1244557929.0        1015873554.0        1310354410.0        2249465273.0         994084013.0        2912484720.0        3876682925.0        1015873554.0        1310354410.0        2249465273.0         994084013.0        2912484720.0        3876682925.0
Wiener process for Thermostat # 4        1 F T T   2.1447125495896904E-01        2430503636.0         902227617.0        3039217662.0         205693714.0        2375800914.0        4220709598.0        2338701263.0        1119171942.0        2570676563.0         317077452.0        3194180850.0         618832124.0        2338701263.0        1119171942.0        2570676563.0         317077452.0        3194180850.0         618832124.0
Wiener process for Thermostat # 5        1 F T T  -7.4974817695318574E-01        3949927612.0        4293465109.0         224208328.0         677588237.0        2173092809.0        2514687022.0        1597262096.0        3906379055.0        3312112953.0        1016013135.0        4099474108.0         275305423.0        1597262096.0        3906379055.0        3312112953.0        1016013135.0        4099474108.0         275305423.0
Wiener process for Thermostat # 6        1 F T T  -2.3195632299180402E+00        4147399821.0         968438491.0         174961265.0         382156541.0        3672303660.0        2385050302.0          97147054.0        3131372450.0         829345164.0        3691032523.0        3006063034.0        4259826321.0          97147054.0        3131372450.0         829345164.0        3691032523.0        3006063034.0        4259826321.0
Wiener process for Thermostat # 7        1 F T T  -8.3038096976097500E-03        3725962017.0        3124905816.0        1692649901.0        3685368087.0         990134651.0        3321809881.0         796079799.0        2105258207.0         955365076.0        2923159030.0        4116632677.0        3067683584.0         796079799.0        2105258207.0         955365076.0        2923159030.0        4116632677.0        3067683584.0
Wiener process for Thermostat # 8        1 F T T   7.2955713326517235E-01        1426374835.0        1022225665.0        3431852557.0        2945126969.0        1347790872.0        2047858768.0        3281794178.0        2616230133.0        1457051261.0        2762791137.0        2480527362.0        2282316169.0        3281794178.0        2616230133.0        1457051261.0        2762791137.0        2480527362.0        2282316169.0
Wiener process for Thermostat # 9        1 F T T  -8.3876742673612970E-01        3633457436.0         863053678.0         665967915.0         928783000.0        4027924725.0        3556250224.0        3777646647.0        1837464056.0        4204654757.0         664239048.0        4190510072.0        2959195122.0        3777646647.0        1837464056.0        4204654757.0         664239048.0        4190510072.0        2959195122.0
Wiener process for Thermostat # 10       1 F T T  -6.7138423863751628E-01        3282585865.0         909372753.0         488063086.0        2442536289.0         174422437.0         477575080.0        4215590817.0        3862461878.0        1087200967.0        1544910132.0         936383720.0        1611370123.0        4215590817.0        3862461878.0        1087200967.0        1544910132.0         936383720.0        1611370123.0
Wiener process for Thermostat # 11       1 F T T  -7.2169956836733329E-02        3039538231.0          25912629.0        1608189467.0        1823124278.0        2331127605.0        2449500504.0        1683636369.0         362165168.0         814316280.0         869382050.0         980203903.0        2062101717.0        1683636369.0         362165168.0         814316280.0         869382050.0         980203903.0        2062101717.0
Wiener process for Thermostat # 12       1 F T T  -6.7722400494670465E-01        2762226669.0        4262778377.0        2250707948.0        3120407528.0        3704866228.0        1185520965.0         272317999.0         166758548.0         310112982.0         201045826.0        1680231254.0         118290799.0         272317999.0         166758548.0         310112982.0         201045826.0        1680231254.0         118290799.0
Wiener process for Thermostat # 13       1 F T T  -7.3817531449270457E-01        3689403510.0         367299738.0        3636386471.0        1925893934.0        3355800516.0        3520562622.0        2245755202.0        1652682525.0        2865544364.0         721509566.0         209733568.0         592362218.0        2245755202.0        1652682525.0        2865544364.0         721509566.0         209733568.0         592362218.0